&CONTROL
  calculation = 'scf',
  prefix = 'hea',
  pseudo_dir = '../../pseudo/',
  tprnfor = .TRUE.,
  tstress = .TRUE.,
  verbosity = 'low',
/
&SYSTEM
  degauss = 0.015,
  ecutrho = 340.0,
  ecutwfc = 85.0,
  ibrav = 0,
  nosym = .FALSE.,
  occupations = 'smearing',
  smearing = 'gauss',
  nat = 20,
  ntyp = 5,
/
&ELECTRONS
  conv_thr = 1d-10,
  electron_maxstep = 80,
  mixing_beta = 0.5,
  mixing_mode = 'local-TF',
/
&IONS
/
&CELL
/
ATOMIC_SPECIES
  Hf  178.4900 Hf.upf
  Nb  92.9064 Nb.upf
  Ta  180.9479 Ta.upf
  Ti  47.8670 Ti.upf
  Zr  91.2240 Zr.upf
ATOMIC_POSITIONS crystal
  Hf 0.603255080300 0.603255079700 0.892911845400
  Hf 0.395060907600 0.395060907500 0.846148783000
  Zr 0.601486015600 0.601486015600 0.153873092500
  Zr 0.804063517800 0.804063517500 0.456170707600
  Ta 0.804655230000 0.804655229400 0.193865191600
  Ta 0.397417337800 0.397417337800 0.107416661200
  Ta 0.596139084500 0.596139084800 0.403164267500
  Ta 0.204347784100 0.204347784400 0.306768651700
  Ta 0.001549247300 0.001549247400 0.249698708500
  Ta -0.008794918600 -0.008794918700 0.747494673700
  Ta 0.805933763300 0.805933763600 0.950113419700
  Ti 0.407860271000 0.407860270800 0.597911950900
  Ti 0.201967442300 0.201967442200 0.056825738700
  Nb 0.791022125200 0.791022125500 0.696094719400
  Nb -0.000087174100 -0.000087173900 0.001088622000
  Nb 0.002924009900 0.002924010000 0.499806452200
  Nb 0.194384029000 0.194384029100 0.800056335700
  Nb 0.398088658700 0.398088659200 0.345844865800
  Nb 0.198094831900 0.198094831800 0.549273271200
  Nb 0.600632756600 0.600632756400 0.645472041800
K_POINTS automatic
  9 9 4 0 0 0
CELL_PARAMETERS angstrom
      7.2764127790      0.0084010660     -3.8877287890
      5.7223781300      4.4945124340     -3.8877287880
     -0.0279930810     -0.0096970870     11.6109897330