&CONTROL
  calculation = 'scf',
  prefix = 'nbti',
  pseudo_dir = '../../pseudo/',
  tprnfor = .TRUE.,
  tstress = .TRUE.,
  verbosity = 'low',
/
&SYSTEM
  degauss = 0.015,
  ecutrho = 340.0,
  ecutwfc = 85.0,
  ibrav = 0,
  nosym = .FALSE.,
  occupations = 'smearing',
  smearing = 'gauss',
  nat = 16,
  ntyp = 2,
/
&ELECTRONS
  conv_thr = 1d-10,
  diago_david_ndim = 8,
  electron_maxstep = 80,
  mixing_beta = 0.5,
  mixing_mode = 'local-TF',
/
&IONS
/
&CELL
/
ATOMIC_SPECIES
  Nb  92.9064 Nb.upf
  Ti  47.8670 Ti.upf
ATOMIC_POSITIONS crystal
  Ti 0.255646417100 0.744353583000 0.750032215500
  Ti 0.494353582900 0.505646417000 0.499967784500
  Ti 0.264650443600 0.735349556500 0.247446387200
  Ti 0.485349556400 0.514650443500 0.002553612800
  Ti 0.227034585000 0.227185440600 0.247951627900
  Ti -0.022814559400 0.477034585100 0.002048372200
  Ti 0.522965415000 0.022814559400 0.002048372100
  Ti 0.772814559400 0.772965414900 0.247951627800
  Nb 0.745439633300 0.254560366800 0.745276607500
  Nb 0.738838738100 0.261161261600 0.256142696900
  Nb 0.004560366700 -0.004560366800 0.504723392500
  Nb 0.011161261900 -0.011161261600 -0.006142696900
  Nb -0.003800361700 0.497822892800 0.496110853800
  Nb 0.502177107100 0.003800361600 0.496110853800
  Nb 0.247822892900 0.246199638400 0.753889146200
  Nb 0.753800361700 0.752177107200 0.753889146200
K_POINTS automatic
  9 9 6 0 0 0
CELL_PARAMETERS angstrom
      5.7237219290      0.0199413440     -0.0106155540
     -1.8891065590      5.4030238560      0.0106155540
     -0.0176154380      0.0124559950      9.1465983050
