&CONTROL
  calculation = 'bands',
  prefix = 'nbti',
  pseudo_dir = '../../pseudo/',
  verbosity = 'low',
/
&SYSTEM
  degauss = 0.015,
  ecutrho = 340.0,
  ecutwfc = 85.0,
  ibrav = 0,
  nbnd = 40,
  nosym = .FALSE.,
  occupations = 'smearing',
  smearing = 'gauss',
  nat = 2,
  ntyp = 2,
/
&ELECTRONS
  conv_thr = 1d-10,
  diagonalization = 'davidson',
  electron_maxstep = 40,
  mixing_beta = 0.7,
/
&IONS
/
&CELL
/
ATOMIC_SPECIES
  Nb  92.9064 Nb.upf
  Ti  47.8670 Ti.upf
ATOMIC_POSITIONS crystal
  Ti 0.500000000000 0.500000000000 0.500000000000
  Nb 0.000000000000 0.000000000000 0.000000000000
CELL_PARAMETERS angstrom
      2.9819781030      0.0000000000      0.0000000000
      0.0000000000      2.9819781030      0.0000000000
      0.0000000000      0.0000000000      2.9819781030
K_POINTS crystal
692
    0.00000000  0.00000000  0.00000000 1
    0.00000000  0.00476190  0.00000000 1
    0.00000000  0.00952381  0.00000000 1
    0.00000000  0.01428571  0.00000000 1
    0.00000000  0.01904762  0.00000000 1
    0.00000000  0.02380952  0.00000000 1
    0.00000000  0.02857143  0.00000000 1
    0.00000000  0.03333333  0.00000000 1
    0.00000000  0.03809524  0.00000000 1
    0.00000000  0.04285714  0.00000000 1
    0.00000000  0.04761905  0.00000000 1
    0.00000000  0.05238095  0.00000000 1
    0.00000000  0.05714286  0.00000000 1
    0.00000000  0.06190476  0.00000000 1
    0.00000000  0.06666667  0.00000000 1
    0.00000000  0.07142857  0.00000000 1
    0.00000000  0.07619048  0.00000000 1
    0.00000000  0.08095238  0.00000000 1
    0.00000000  0.08571429  0.00000000 1
    0.00000000  0.09047619  0.00000000 1
    0.00000000  0.09523810  0.00000000 1
    0.00000000  0.10000000  0.00000000 1
    0.00000000  0.10476190  0.00000000 1
    0.00000000  0.10952381  0.00000000 1
    0.00000000  0.11428571  0.00000000 1
    0.00000000  0.11904762  0.00000000 1
    0.00000000  0.12380952  0.00000000 1
    0.00000000  0.12857143  0.00000000 1
    0.00000000  0.13333333  0.00000000 1
    0.00000000  0.13809524  0.00000000 1
    0.00000000  0.14285714  0.00000000 1
    0.00000000  0.14761905  0.00000000 1
    0.00000000  0.15238095  0.00000000 1
    0.00000000  0.15714286  0.00000000 1
    0.00000000  0.16190476  0.00000000 1
    0.00000000  0.16666667  0.00000000 1
    0.00000000  0.17142857  0.00000000 1
    0.00000000  0.17619048  0.00000000 1
    0.00000000  0.18095238  0.00000000 1
    0.00000000  0.18571429  0.00000000 1
    0.00000000  0.19047619  0.00000000 1
    0.00000000  0.19523810  0.00000000 1
    0.00000000  0.20000000  0.00000000 1
    0.00000000  0.20476190  0.00000000 1
    0.00000000  0.20952381  0.00000000 1
    0.00000000  0.21428571  0.00000000 1
    0.00000000  0.21904762  0.00000000 1
    0.00000000  0.22380952  0.00000000 1
    0.00000000  0.22857143  0.00000000 1
    0.00000000  0.23333333  0.00000000 1
    0.00000000  0.23809524  0.00000000 1
    0.00000000  0.24285714  0.00000000 1
    0.00000000  0.24761905  0.00000000 1
    0.00000000  0.25238095  0.00000000 1
    0.00000000  0.25714286  0.00000000 1
    0.00000000  0.26190476  0.00000000 1
    0.00000000  0.26666667  0.00000000 1
    0.00000000  0.27142857  0.00000000 1
    0.00000000  0.27619048  0.00000000 1
    0.00000000  0.28095238  0.00000000 1
    0.00000000  0.28571429  0.00000000 1
    0.00000000  0.29047619  0.00000000 1
    0.00000000  0.29523810  0.00000000 1
    0.00000000  0.30000000  0.00000000 1
    0.00000000  0.30476190  0.00000000 1
    0.00000000  0.30952381  0.00000000 1
    0.00000000  0.31428571  0.00000000 1
    0.00000000  0.31904762  0.00000000 1
    0.00000000  0.32380952  0.00000000 1
    0.00000000  0.32857143  0.00000000 1
    0.00000000  0.33333333  0.00000000 1
    0.00000000  0.33809524  0.00000000 1
    0.00000000  0.34285714  0.00000000 1
    0.00000000  0.34761905  0.00000000 1
    0.00000000  0.35238095  0.00000000 1
    0.00000000  0.35714286  0.00000000 1
    0.00000000  0.36190476  0.00000000 1
    0.00000000  0.36666667  0.00000000 1
    0.00000000  0.37142857  0.00000000 1
    0.00000000  0.37619048  0.00000000 1
    0.00000000  0.38095238  0.00000000 1
    0.00000000  0.38571429  0.00000000 1
    0.00000000  0.39047619  0.00000000 1
    0.00000000  0.39523810  0.00000000 1
    0.00000000  0.40000000  0.00000000 1
    0.00000000  0.40476190  0.00000000 1
    0.00000000  0.40952381  0.00000000 1
    0.00000000  0.41428571  0.00000000 1
    0.00000000  0.41904762  0.00000000 1
    0.00000000  0.42380952  0.00000000 1
    0.00000000  0.42857143  0.00000000 1
    0.00000000  0.43333333  0.00000000 1
    0.00000000  0.43809524  0.00000000 1
    0.00000000  0.44285714  0.00000000 1
    0.00000000  0.44761905  0.00000000 1
    0.00000000  0.45238095  0.00000000 1
    0.00000000  0.45714286  0.00000000 1
    0.00000000  0.46190476  0.00000000 1
    0.00000000  0.46666667  0.00000000 1
    0.00000000  0.47142857  0.00000000 1
    0.00000000  0.47619048  0.00000000 1
    0.00000000  0.48095238  0.00000000 1
    0.00000000  0.48571429  0.00000000 1
    0.00000000  0.49047619  0.00000000 1
    0.00000000  0.49523810  0.00000000 1
    0.00000000  0.50000000  0.00000000 1
    0.00476190  0.50000000  0.00000000 1
    0.00952381  0.50000000  0.00000000 1
    0.01428571  0.50000000  0.00000000 1
    0.01904762  0.50000000  0.00000000 1
    0.02380952  0.50000000  0.00000000 1
    0.02857143  0.50000000  0.00000000 1
    0.03333333  0.50000000  0.00000000 1
    0.03809524  0.50000000  0.00000000 1
    0.04285714  0.50000000  0.00000000 1
    0.04761905  0.50000000  0.00000000 1
    0.05238095  0.50000000  0.00000000 1
    0.05714286  0.50000000  0.00000000 1
    0.06190476  0.50000000  0.00000000 1
    0.06666667  0.50000000  0.00000000 1
    0.07142857  0.50000000  0.00000000 1
    0.07619048  0.50000000  0.00000000 1
    0.08095238  0.50000000  0.00000000 1
    0.08571429  0.50000000  0.00000000 1
    0.09047619  0.50000000  0.00000000 1
    0.09523810  0.50000000  0.00000000 1
    0.10000000  0.50000000  0.00000000 1
    0.10476190  0.50000000  0.00000000 1
    0.10952381  0.50000000  0.00000000 1
    0.11428571  0.50000000  0.00000000 1
    0.11904762  0.50000000  0.00000000 1
    0.12380952  0.50000000  0.00000000 1
    0.12857143  0.50000000  0.00000000 1
    0.13333333  0.50000000  0.00000000 1
    0.13809524  0.50000000  0.00000000 1
    0.14285714  0.50000000  0.00000000 1
    0.14761905  0.50000000  0.00000000 1
    0.15238095  0.50000000  0.00000000 1
    0.15714286  0.50000000  0.00000000 1
    0.16190476  0.50000000  0.00000000 1
    0.16666667  0.50000000  0.00000000 1
    0.17142857  0.50000000  0.00000000 1
    0.17619048  0.50000000  0.00000000 1
    0.18095238  0.50000000  0.00000000 1
    0.18571429  0.50000000  0.00000000 1
    0.19047619  0.50000000  0.00000000 1
    0.19523810  0.50000000  0.00000000 1
    0.20000000  0.50000000  0.00000000 1
    0.20476190  0.50000000  0.00000000 1
    0.20952381  0.50000000  0.00000000 1
    0.21428571  0.50000000  0.00000000 1
    0.21904762  0.50000000  0.00000000 1
    0.22380952  0.50000000  0.00000000 1
    0.22857143  0.50000000  0.00000000 1
    0.23333333  0.50000000  0.00000000 1
    0.23809524  0.50000000  0.00000000 1
    0.24285714  0.50000000  0.00000000 1
    0.24761905  0.50000000  0.00000000 1
    0.25238095  0.50000000  0.00000000 1
    0.25714286  0.50000000  0.00000000 1
    0.26190476  0.50000000  0.00000000 1
    0.26666667  0.50000000  0.00000000 1
    0.27142857  0.50000000  0.00000000 1
    0.27619048  0.50000000  0.00000000 1
    0.28095238  0.50000000  0.00000000 1
    0.28571429  0.50000000  0.00000000 1
    0.29047619  0.50000000  0.00000000 1
    0.29523810  0.50000000  0.00000000 1
    0.30000000  0.50000000  0.00000000 1
    0.30476190  0.50000000  0.00000000 1
    0.30952381  0.50000000  0.00000000 1
    0.31428571  0.50000000  0.00000000 1
    0.31904762  0.50000000  0.00000000 1
    0.32380952  0.50000000  0.00000000 1
    0.32857143  0.50000000  0.00000000 1
    0.33333333  0.50000000  0.00000000 1
    0.33809524  0.50000000  0.00000000 1
    0.34285714  0.50000000  0.00000000 1
    0.34761905  0.50000000  0.00000000 1
    0.35238095  0.50000000  0.00000000 1
    0.35714286  0.50000000  0.00000000 1
    0.36190476  0.50000000  0.00000000 1
    0.36666667  0.50000000  0.00000000 1
    0.37142857  0.50000000  0.00000000 1
    0.37619048  0.50000000  0.00000000 1
    0.38095238  0.50000000  0.00000000 1
    0.38571429  0.50000000  0.00000000 1
    0.39047619  0.50000000  0.00000000 1
    0.39523810  0.50000000  0.00000000 1
    0.40000000  0.50000000  0.00000000 1
    0.40476190  0.50000000  0.00000000 1
    0.40952381  0.50000000  0.00000000 1
    0.41428571  0.50000000  0.00000000 1
    0.41904762  0.50000000  0.00000000 1
    0.42380952  0.50000000  0.00000000 1
    0.42857143  0.50000000  0.00000000 1
    0.43333333  0.50000000  0.00000000 1
    0.43809524  0.50000000  0.00000000 1
    0.44285714  0.50000000  0.00000000 1
    0.44761905  0.50000000  0.00000000 1
    0.45238095  0.50000000  0.00000000 1
    0.45714286  0.50000000  0.00000000 1
    0.46190476  0.50000000  0.00000000 1
    0.46666667  0.50000000  0.00000000 1
    0.47142857  0.50000000  0.00000000 1
    0.47619048  0.50000000  0.00000000 1
    0.48095238  0.50000000  0.00000000 1
    0.48571429  0.50000000  0.00000000 1
    0.49047619  0.50000000  0.00000000 1
    0.49523810  0.50000000  0.00000000 1
    0.50000000  0.50000000  0.00000000 1
    0.49664430  0.49664430  0.00000000 1
    0.49328859  0.49328859  0.00000000 1
    0.48993289  0.48993289  0.00000000 1
    0.48657718  0.48657718  0.00000000 1
    0.48322148  0.48322148  0.00000000 1
    0.47986577  0.47986577  0.00000000 1
    0.47651007  0.47651007  0.00000000 1
    0.47315436  0.47315436  0.00000000 1
    0.46979866  0.46979866  0.00000000 1
    0.46644295  0.46644295  0.00000000 1
    0.46308725  0.46308725  0.00000000 1
    0.45973154  0.45973154  0.00000000 1
    0.45637584  0.45637584  0.00000000 1
    0.45302013  0.45302013  0.00000000 1
    0.44966443  0.44966443  0.00000000 1
    0.44630872  0.44630872  0.00000000 1
    0.44295302  0.44295302  0.00000000 1
    0.43959732  0.43959732  0.00000000 1
    0.43624161  0.43624161  0.00000000 1
    0.43288591  0.43288591  0.00000000 1
    0.42953020  0.42953020  0.00000000 1
    0.42617450  0.42617450  0.00000000 1
    0.42281879  0.42281879  0.00000000 1
    0.41946309  0.41946309  0.00000000 1
    0.41610738  0.41610738  0.00000000 1
    0.41275168  0.41275168  0.00000000 1
    0.40939597  0.40939597  0.00000000 1
    0.40604027  0.40604027  0.00000000 1
    0.40268456  0.40268456  0.00000000 1
    0.39932886  0.39932886  0.00000000 1
    0.39597315  0.39597315  0.00000000 1
    0.39261745  0.39261745  0.00000000 1
    0.38926174  0.38926174  0.00000000 1
    0.38590604  0.38590604  0.00000000 1
    0.38255034  0.38255034  0.00000000 1
    0.37919463  0.37919463  0.00000000 1
    0.37583893  0.37583893  0.00000000 1
    0.37248322  0.37248322  0.00000000 1
    0.36912752  0.36912752  0.00000000 1
    0.36577181  0.36577181  0.00000000 1
    0.36241611  0.36241611  0.00000000 1
    0.35906040  0.35906040  0.00000000 1
    0.35570470  0.35570470  0.00000000 1
    0.35234899  0.35234899  0.00000000 1
    0.34899329  0.34899329  0.00000000 1
    0.34563758  0.34563758  0.00000000 1
    0.34228188  0.34228188  0.00000000 1
    0.33892617  0.33892617  0.00000000 1
    0.33557047  0.33557047  0.00000000 1
    0.33221477  0.33221477  0.00000000 1
    0.32885906  0.32885906  0.00000000 1
    0.32550336  0.32550336  0.00000000 1
    0.32214765  0.32214765  0.00000000 1
    0.31879195  0.31879195  0.00000000 1
    0.31543624  0.31543624  0.00000000 1
    0.31208054  0.31208054  0.00000000 1
    0.30872483  0.30872483  0.00000000 1
    0.30536913  0.30536913  0.00000000 1
    0.30201342  0.30201342  0.00000000 1
    0.29865772  0.29865772  0.00000000 1
    0.29530201  0.29530201  0.00000000 1
    0.29194631  0.29194631  0.00000000 1
    0.28859060  0.28859060  0.00000000 1
    0.28523490  0.28523490  0.00000000 1
    0.28187919  0.28187919  0.00000000 1
    0.27852349  0.27852349  0.00000000 1
    0.27516779  0.27516779  0.00000000 1
    0.27181208  0.27181208  0.00000000 1
    0.26845638  0.26845638  0.00000000 1
    0.26510067  0.26510067  0.00000000 1
    0.26174497  0.26174497  0.00000000 1
    0.25838926  0.25838926  0.00000000 1
    0.25503356  0.25503356  0.00000000 1
    0.25167785  0.25167785  0.00000000 1
    0.24832215  0.24832215  0.00000000 1
    0.24496644  0.24496644  0.00000000 1
    0.24161074  0.24161074  0.00000000 1
    0.23825503  0.23825503  0.00000000 1
    0.23489933  0.23489933  0.00000000 1
    0.23154362  0.23154362  0.00000000 1
    0.22818792  0.22818792  0.00000000 1
    0.22483221  0.22483221  0.00000000 1
    0.22147651  0.22147651  0.00000000 1
    0.21812081  0.21812081  0.00000000 1
    0.21476510  0.21476510  0.00000000 1
    0.21140940  0.21140940  0.00000000 1
    0.20805369  0.20805369  0.00000000 1
    0.20469799  0.20469799  0.00000000 1
    0.20134228  0.20134228  0.00000000 1
    0.19798658  0.19798658  0.00000000 1
    0.19463087  0.19463087  0.00000000 1
    0.19127517  0.19127517  0.00000000 1
    0.18791946  0.18791946  0.00000000 1
    0.18456376  0.18456376  0.00000000 1
    0.18120805  0.18120805  0.00000000 1
    0.17785235  0.17785235  0.00000000 1
    0.17449664  0.17449664  0.00000000 1
    0.17114094  0.17114094  0.00000000 1
    0.16778523  0.16778523  0.00000000 1
    0.16442953  0.16442953  0.00000000 1
    0.16107383  0.16107383  0.00000000 1
    0.15771812  0.15771812  0.00000000 1
    0.15436242  0.15436242  0.00000000 1
    0.15100671  0.15100671  0.00000000 1
    0.14765101  0.14765101  0.00000000 1
    0.14429530  0.14429530  0.00000000 1
    0.14093960  0.14093960  0.00000000 1
    0.13758389  0.13758389  0.00000000 1
    0.13422819  0.13422819  0.00000000 1
    0.13087248  0.13087248  0.00000000 1
    0.12751678  0.12751678  0.00000000 1
    0.12416107  0.12416107  0.00000000 1
    0.12080537  0.12080537  0.00000000 1
    0.11744966  0.11744966  0.00000000 1
    0.11409396  0.11409396  0.00000000 1
    0.11073826  0.11073826  0.00000000 1
    0.10738255  0.10738255  0.00000000 1
    0.10402685  0.10402685  0.00000000 1
    0.10067114  0.10067114  0.00000000 1
    0.09731544  0.09731544  0.00000000 1
    0.09395973  0.09395973  0.00000000 1
    0.09060403  0.09060403  0.00000000 1
    0.08724832  0.08724832  0.00000000 1
    0.08389262  0.08389262  0.00000000 1
    0.08053691  0.08053691  0.00000000 1
    0.07718121  0.07718121  0.00000000 1
    0.07382550  0.07382550  0.00000000 1
    0.07046980  0.07046980  0.00000000 1
    0.06711409  0.06711409  0.00000000 1
    0.06375839  0.06375839  0.00000000 1
    0.06040268  0.06040268  0.00000000 1
    0.05704698  0.05704698  0.00000000 1
    0.05369128  0.05369128  0.00000000 1
    0.05033557  0.05033557  0.00000000 1
    0.04697987  0.04697987  0.00000000 1
    0.04362416  0.04362416  0.00000000 1
    0.04026846  0.04026846  0.00000000 1
    0.03691275  0.03691275  0.00000000 1
    0.03355705  0.03355705  0.00000000 1
    0.03020134  0.03020134  0.00000000 1
    0.02684564  0.02684564  0.00000000 1
    0.02348993  0.02348993  0.00000000 1
    0.02013423  0.02013423  0.00000000 1
    0.01677852  0.01677852  0.00000000 1
    0.01342282  0.01342282  0.00000000 1
    0.01006711  0.01006711  0.00000000 1
    0.00671141  0.00671141  0.00000000 1
    0.00335570  0.00335570  0.00000000 1
    0.00000000  0.00000000  0.00000000 1
    0.00273224  0.00273224  0.00273224 1
    0.00546448  0.00546448  0.00546448 1
    0.00819672  0.00819672  0.00819672 1
    0.01092896  0.01092896  0.01092896 1
    0.01366120  0.01366120  0.01366120 1
    0.01639344  0.01639344  0.01639344 1
    0.01912568  0.01912568  0.01912568 1
    0.02185792  0.02185792  0.02185792 1
    0.02459016  0.02459016  0.02459016 1
    0.02732240  0.02732240  0.02732240 1
    0.03005464  0.03005464  0.03005464 1
    0.03278689  0.03278689  0.03278689 1
    0.03551913  0.03551913  0.03551913 1
    0.03825137  0.03825137  0.03825137 1
    0.04098361  0.04098361  0.04098361 1
    0.04371585  0.04371585  0.04371585 1
    0.04644809  0.04644809  0.04644809 1
    0.04918033  0.04918033  0.04918033 1
    0.05191257  0.05191257  0.05191257 1
    0.05464481  0.05464481  0.05464481 1
    0.05737705  0.05737705  0.05737705 1
    0.06010929  0.06010929  0.06010929 1
    0.06284153  0.06284153  0.06284153 1
    0.06557377  0.06557377  0.06557377 1
    0.06830601  0.06830601  0.06830601 1
    0.07103825  0.07103825  0.07103825 1
    0.07377049  0.07377049  0.07377049 1
    0.07650273  0.07650273  0.07650273 1
    0.07923497  0.07923497  0.07923497 1
    0.08196721  0.08196721  0.08196721 1
    0.08469945  0.08469945  0.08469945 1
    0.08743169  0.08743169  0.08743169 1
    0.09016393  0.09016393  0.09016393 1
    0.09289617  0.09289617  0.09289617 1
    0.09562842  0.09562842  0.09562842 1
    0.09836066  0.09836066  0.09836066 1
    0.10109290  0.10109290  0.10109290 1
    0.10382514  0.10382514  0.10382514 1
    0.10655738  0.10655738  0.10655738 1
    0.10928962  0.10928962  0.10928962 1
    0.11202186  0.11202186  0.11202186 1
    0.11475410  0.11475410  0.11475410 1
    0.11748634  0.11748634  0.11748634 1
    0.12021858  0.12021858  0.12021858 1
    0.12295082  0.12295082  0.12295082 1
    0.12568306  0.12568306  0.12568306 1
    0.12841530  0.12841530  0.12841530 1
    0.13114754  0.13114754  0.13114754 1
    0.13387978  0.13387978  0.13387978 1
    0.13661202  0.13661202  0.13661202 1
    0.13934426  0.13934426  0.13934426 1
    0.14207650  0.14207650  0.14207650 1
    0.14480874  0.14480874  0.14480874 1
    0.14754098  0.14754098  0.14754098 1
    0.15027322  0.15027322  0.15027322 1
    0.15300546  0.15300546  0.15300546 1
    0.15573770  0.15573770  0.15573770 1
    0.15846995  0.15846995  0.15846995 1
    0.16120219  0.16120219  0.16120219 1
    0.16393443  0.16393443  0.16393443 1
    0.16666667  0.16666667  0.16666667 1
    0.16939891  0.16939891  0.16939891 1
    0.17213115  0.17213115  0.17213115 1
    0.17486339  0.17486339  0.17486339 1
    0.17759563  0.17759563  0.17759563 1
    0.18032787  0.18032787  0.18032787 1
    0.18306011  0.18306011  0.18306011 1
    0.18579235  0.18579235  0.18579235 1
    0.18852459  0.18852459  0.18852459 1
    0.19125683  0.19125683  0.19125683 1
    0.19398907  0.19398907  0.19398907 1
    0.19672131  0.19672131  0.19672131 1
    0.19945355  0.19945355  0.19945355 1
    0.20218579  0.20218579  0.20218579 1
    0.20491803  0.20491803  0.20491803 1
    0.20765027  0.20765027  0.20765027 1
    0.21038251  0.21038251  0.21038251 1
    0.21311475  0.21311475  0.21311475 1
    0.21584699  0.21584699  0.21584699 1
    0.21857923  0.21857923  0.21857923 1
    0.22131148  0.22131148  0.22131148 1
    0.22404372  0.22404372  0.22404372 1
    0.22677596  0.22677596  0.22677596 1
    0.22950820  0.22950820  0.22950820 1
    0.23224044  0.23224044  0.23224044 1
    0.23497268  0.23497268  0.23497268 1
    0.23770492  0.23770492  0.23770492 1
    0.24043716  0.24043716  0.24043716 1
    0.24316940  0.24316940  0.24316940 1
    0.24590164  0.24590164  0.24590164 1
    0.24863388  0.24863388  0.24863388 1
    0.25136612  0.25136612  0.25136612 1
    0.25409836  0.25409836  0.25409836 1
    0.25683060  0.25683060  0.25683060 1
    0.25956284  0.25956284  0.25956284 1
    0.26229508  0.26229508  0.26229508 1
    0.26502732  0.26502732  0.26502732 1
    0.26775956  0.26775956  0.26775956 1
    0.27049180  0.27049180  0.27049180 1
    0.27322404  0.27322404  0.27322404 1
    0.27595628  0.27595628  0.27595628 1
    0.27868852  0.27868852  0.27868852 1
    0.28142077  0.28142077  0.28142077 1
    0.28415301  0.28415301  0.28415301 1
    0.28688525  0.28688525  0.28688525 1
    0.28961749  0.28961749  0.28961749 1
    0.29234973  0.29234973  0.29234973 1
    0.29508197  0.29508197  0.29508197 1
    0.29781421  0.29781421  0.29781421 1
    0.30054645  0.30054645  0.30054645 1
    0.30327869  0.30327869  0.30327869 1
    0.30601093  0.30601093  0.30601093 1
    0.30874317  0.30874317  0.30874317 1
    0.31147541  0.31147541  0.31147541 1
    0.31420765  0.31420765  0.31420765 1
    0.31693989  0.31693989  0.31693989 1
    0.31967213  0.31967213  0.31967213 1
    0.32240437  0.32240437  0.32240437 1
    0.32513661  0.32513661  0.32513661 1
    0.32786885  0.32786885  0.32786885 1
    0.33060109  0.33060109  0.33060109 1
    0.33333333  0.33333333  0.33333333 1
    0.33606557  0.33606557  0.33606557 1
    0.33879781  0.33879781  0.33879781 1
    0.34153005  0.34153005  0.34153005 1
    0.34426230  0.34426230  0.34426230 1
    0.34699454  0.34699454  0.34699454 1
    0.34972678  0.34972678  0.34972678 1
    0.35245902  0.35245902  0.35245902 1
    0.35519126  0.35519126  0.35519126 1
    0.35792350  0.35792350  0.35792350 1
    0.36065574  0.36065574  0.36065574 1
    0.36338798  0.36338798  0.36338798 1
    0.36612022  0.36612022  0.36612022 1
    0.36885246  0.36885246  0.36885246 1
    0.37158470  0.37158470  0.37158470 1
    0.37431694  0.37431694  0.37431694 1
    0.37704918  0.37704918  0.37704918 1
    0.37978142  0.37978142  0.37978142 1
    0.38251366  0.38251366  0.38251366 1
    0.38524590  0.38524590  0.38524590 1
    0.38797814  0.38797814  0.38797814 1
    0.39071038  0.39071038  0.39071038 1
    0.39344262  0.39344262  0.39344262 1
    0.39617486  0.39617486  0.39617486 1
    0.39890710  0.39890710  0.39890710 1
    0.40163934  0.40163934  0.40163934 1
    0.40437158  0.40437158  0.40437158 1
    0.40710383  0.40710383  0.40710383 1
    0.40983607  0.40983607  0.40983607 1
    0.41256831  0.41256831  0.41256831 1
    0.41530055  0.41530055  0.41530055 1
    0.41803279  0.41803279  0.41803279 1
    0.42076503  0.42076503  0.42076503 1
    0.42349727  0.42349727  0.42349727 1
    0.42622951  0.42622951  0.42622951 1
    0.42896175  0.42896175  0.42896175 1
    0.43169399  0.43169399  0.43169399 1
    0.43442623  0.43442623  0.43442623 1
    0.43715847  0.43715847  0.43715847 1
    0.43989071  0.43989071  0.43989071 1
    0.44262295  0.44262295  0.44262295 1
    0.44535519  0.44535519  0.44535519 1
    0.44808743  0.44808743  0.44808743 1
    0.45081967  0.45081967  0.45081967 1
    0.45355191  0.45355191  0.45355191 1
    0.45628415  0.45628415  0.45628415 1
    0.45901639  0.45901639  0.45901639 1
    0.46174863  0.46174863  0.46174863 1
    0.46448087  0.46448087  0.46448087 1
    0.46721311  0.46721311  0.46721311 1
    0.46994536  0.46994536  0.46994536 1
    0.47267760  0.47267760  0.47267760 1
    0.47540984  0.47540984  0.47540984 1
    0.47814208  0.47814208  0.47814208 1
    0.48087432  0.48087432  0.48087432 1
    0.48360656  0.48360656  0.48360656 1
    0.48633880  0.48633880  0.48633880 1
    0.48907104  0.48907104  0.48907104 1
    0.49180328  0.49180328  0.49180328 1
    0.49453552  0.49453552  0.49453552 1
    0.49726776  0.49726776  0.49726776 1
    0.50000000  0.50000000  0.50000000 1
    0.49664430  0.50000000  0.49664430 1
    0.49328859  0.50000000  0.49328859 1
    0.48993289  0.50000000  0.48993289 1
    0.48657718  0.50000000  0.48657718 1
    0.48322148  0.50000000  0.48322148 1
    0.47986577  0.50000000  0.47986577 1
    0.47651007  0.50000000  0.47651007 1
    0.47315436  0.50000000  0.47315436 1
    0.46979866  0.50000000  0.46979866 1
    0.46644295  0.50000000  0.46644295 1
    0.46308725  0.50000000  0.46308725 1
    0.45973154  0.50000000  0.45973154 1
    0.45637584  0.50000000  0.45637584 1
    0.45302013  0.50000000  0.45302013 1
    0.44966443  0.50000000  0.44966443 1
    0.44630872  0.50000000  0.44630872 1
    0.44295302  0.50000000  0.44295302 1
    0.43959732  0.50000000  0.43959732 1
    0.43624161  0.50000000  0.43624161 1
    0.43288591  0.50000000  0.43288591 1
    0.42953020  0.50000000  0.42953020 1
    0.42617450  0.50000000  0.42617450 1
    0.42281879  0.50000000  0.42281879 1
    0.41946309  0.50000000  0.41946309 1
    0.41610738  0.50000000  0.41610738 1
    0.41275168  0.50000000  0.41275168 1
    0.40939597  0.50000000  0.40939597 1
    0.40604027  0.50000000  0.40604027 1
    0.40268456  0.50000000  0.40268456 1
    0.39932886  0.50000000  0.39932886 1
    0.39597315  0.50000000  0.39597315 1
    0.39261745  0.50000000  0.39261745 1
    0.38926174  0.50000000  0.38926174 1
    0.38590604  0.50000000  0.38590604 1
    0.38255034  0.50000000  0.38255034 1
    0.37919463  0.50000000  0.37919463 1
    0.37583893  0.50000000  0.37583893 1
    0.37248322  0.50000000  0.37248322 1
    0.36912752  0.50000000  0.36912752 1
    0.36577181  0.50000000  0.36577181 1
    0.36241611  0.50000000  0.36241611 1
    0.35906040  0.50000000  0.35906040 1
    0.35570470  0.50000000  0.35570470 1
    0.35234899  0.50000000  0.35234899 1
    0.34899329  0.50000000  0.34899329 1
    0.34563758  0.50000000  0.34563758 1
    0.34228188  0.50000000  0.34228188 1
    0.33892617  0.50000000  0.33892617 1
    0.33557047  0.50000000  0.33557047 1
    0.33221477  0.50000000  0.33221477 1
    0.32885906  0.50000000  0.32885906 1
    0.32550336  0.50000000  0.32550336 1
    0.32214765  0.50000000  0.32214765 1
    0.31879195  0.50000000  0.31879195 1
    0.31543624  0.50000000  0.31543624 1
    0.31208054  0.50000000  0.31208054 1
    0.30872483  0.50000000  0.30872483 1
    0.30536913  0.50000000  0.30536913 1
    0.30201342  0.50000000  0.30201342 1
    0.29865772  0.50000000  0.29865772 1
    0.29530201  0.50000000  0.29530201 1
    0.29194631  0.50000000  0.29194631 1
    0.28859060  0.50000000  0.28859060 1
    0.28523490  0.50000000  0.28523490 1
    0.28187919  0.50000000  0.28187919 1
    0.27852349  0.50000000  0.27852349 1
    0.27516779  0.50000000  0.27516779 1
    0.27181208  0.50000000  0.27181208 1
    0.26845638  0.50000000  0.26845638 1
    0.26510067  0.50000000  0.26510067 1
    0.26174497  0.50000000  0.26174497 1
    0.25838926  0.50000000  0.25838926 1
    0.25503356  0.50000000  0.25503356 1
    0.25167785  0.50000000  0.25167785 1
    0.24832215  0.50000000  0.24832215 1
    0.24496644  0.50000000  0.24496644 1
    0.24161074  0.50000000  0.24161074 1
    0.23825503  0.50000000  0.23825503 1
    0.23489933  0.50000000  0.23489933 1
    0.23154362  0.50000000  0.23154362 1
    0.22818792  0.50000000  0.22818792 1
    0.22483221  0.50000000  0.22483221 1
    0.22147651  0.50000000  0.22147651 1
    0.21812081  0.50000000  0.21812081 1
    0.21476510  0.50000000  0.21476510 1
    0.21140940  0.50000000  0.21140940 1
    0.20805369  0.50000000  0.20805369 1
    0.20469799  0.50000000  0.20469799 1
    0.20134228  0.50000000  0.20134228 1
    0.19798658  0.50000000  0.19798658 1
    0.19463087  0.50000000  0.19463087 1
    0.19127517  0.50000000  0.19127517 1
    0.18791946  0.50000000  0.18791946 1
    0.18456376  0.50000000  0.18456376 1
    0.18120805  0.50000000  0.18120805 1
    0.17785235  0.50000000  0.17785235 1
    0.17449664  0.50000000  0.17449664 1
    0.17114094  0.50000000  0.17114094 1
    0.16778523  0.50000000  0.16778523 1
    0.16442953  0.50000000  0.16442953 1
    0.16107383  0.50000000  0.16107383 1
    0.15771812  0.50000000  0.15771812 1
    0.15436242  0.50000000  0.15436242 1
    0.15100671  0.50000000  0.15100671 1
    0.14765101  0.50000000  0.14765101 1
    0.14429530  0.50000000  0.14429530 1
    0.14093960  0.50000000  0.14093960 1
    0.13758389  0.50000000  0.13758389 1
    0.13422819  0.50000000  0.13422819 1
    0.13087248  0.50000000  0.13087248 1
    0.12751678  0.50000000  0.12751678 1
    0.12416107  0.50000000  0.12416107 1
    0.12080537  0.50000000  0.12080537 1
    0.11744966  0.50000000  0.11744966 1
    0.11409396  0.50000000  0.11409396 1
    0.11073826  0.50000000  0.11073826 1
    0.10738255  0.50000000  0.10738255 1
    0.10402685  0.50000000  0.10402685 1
    0.10067114  0.50000000  0.10067114 1
    0.09731544  0.50000000  0.09731544 1
    0.09395973  0.50000000  0.09395973 1
    0.09060403  0.50000000  0.09060403 1
    0.08724832  0.50000000  0.08724832 1
    0.08389262  0.50000000  0.08389262 1
    0.08053691  0.50000000  0.08053691 1
    0.07718121  0.50000000  0.07718121 1
    0.07382550  0.50000000  0.07382550 1
    0.07046980  0.50000000  0.07046980 1
    0.06711409  0.50000000  0.06711409 1
    0.06375839  0.50000000  0.06375839 1
    0.06040268  0.50000000  0.06040268 1
    0.05704698  0.50000000  0.05704698 1
    0.05369128  0.50000000  0.05369128 1
    0.05033557  0.50000000  0.05033557 1
    0.04697987  0.50000000  0.04697987 1
    0.04362416  0.50000000  0.04362416 1
    0.04026846  0.50000000  0.04026846 1
    0.03691275  0.50000000  0.03691275 1
    0.03355705  0.50000000  0.03355705 1
    0.03020134  0.50000000  0.03020134 1
    0.02684564  0.50000000  0.02684564 1
    0.02348993  0.50000000  0.02348993 1
    0.02013423  0.50000000  0.02013423 1
    0.01677852  0.50000000  0.01677852 1
    0.01342282  0.50000000  0.01342282 1
    0.01006711  0.50000000  0.01006711 1
    0.00671141  0.50000000  0.00671141 1
    0.00335570  0.50000000  0.00335570 1
    0.00000000  0.50000000  0.00000000 1
