&CONTROL
  calculation = 'scf',
  prefix = 'nbti',
  pseudo_dir = '../../pseudo/',
  tprnfor = .TRUE.,
  tstress = .TRUE.,
  verbosity = 'low',
/
&SYSTEM
  degauss = 0.015,
  ecutrho = 340.0,
  ecutwfc = 85.0,
  ibrav = 0,
  nbnd = 200,
  nosym = .FALSE.,
  occupations = 'smearing',
  smearing = 'gauss',
  nat = 16,
  ntyp = 2,
/
&ELECTRONS
  conv_thr = 1d-10,
  electron_maxstep = 80,
  mixing_beta = 0.7,
  mixing_mode = 'local-TF',
/
&IONS
/
&CELL
/
ATOMIC_SPECIES
  Nb  92.9064 Nb.upf
  Ti  47.8670 Ti.upf
ATOMIC_POSITIONS crystal
  Ti 0.251001004400 0.748999418000 0.751401842900
  Ti 0.498998995600 0.501000582000 0.498598157100
  Ti 0.260795894100 0.739206333400 0.247234970100
  Ti 0.489204105900 0.510793666600 0.002765029900
  Ti 0.249474464800 0.252208000600 0.246092827700
  Ti 0.002207460000 0.499475373800 0.003906422000
  Ti 0.500525535200 -0.002208000600 0.003907172300
  Ti 0.747792540000 0.750524626200 0.246093578000
  Nb 0.749187496400 0.250812504500 0.759446051200
  Nb 0.739789178200 0.260211776600 0.237513152200
  Nb 0.000812503600 -0.000812504500 0.490553948800
  Nb 0.010210821800 -0.010211776600 0.012486847800
  Nb 0.001361266100 0.501399762700 0.495129580000
  Nb 0.498600424300 -0.001360281100 0.495129145000
  Nb 0.251399575700 0.251360281100 0.754870855000
  Nb 0.748638733900 0.748600237300 0.754870420000
K_POINTS automatic
  9 9 6 0 0 0
CELL_PARAMETERS angstrom
      4.8123692870      0.0103618240     -0.0053479080
     -1.5821765300      4.5448706940      0.0053423350
     -0.0084338540      0.0059946750      7.9031072500