&projwfc
  prefix = 'hea'
  outdir = './'
  filpdos = 'hea-pdos.dat'

/
