&CONTROL
  calculation = 'bands',
  prefix = 'nb',
  pseudo_dir = '../../pseudo/',
  verbosity = 'low',
/
&SYSTEM
  degauss = 0.015,
  ecutrho = 340,
  ecutwfc = 85.0,
  ibrav = 0,
  nbnd = 14,
  nosym = .FALSE.,
  occupations = 'smearing',
  smearing = 'gauss',
  nat = 1,
  ntyp = 1,
/
&ELECTRONS
  conv_thr = 1d-10,
  diagonalization = 'davidson',
  electron_maxstep = 40,
  mixing_beta = 0.7,
/
&IONS
/
&CELL
/
ATOMIC_SPECIES
  Nb  92.9064 Nb.upf
ATOMIC_POSITIONS crystal
  Nb 0.000000000000 0.000000000000 0.000000000000
CELL_PARAMETERS angstrom
      1.4655628300      1.4655628300      1.4655628300
      1.4655628300     -1.4655628300     -1.4655628300
     -1.4655628300      1.4655628300     -1.4655628300
K_POINTS crystal
893
    0.00000000  0.00000000  0.00000000 1
    0.00231481  -0.00231481  0.00231481 1
    0.00462963  -0.00462963  0.00462963 1
    0.00694444  -0.00694444  0.00694444 1
    0.00925926  -0.00925926  0.00925926 1
    0.01157407  -0.01157407  0.01157407 1
    0.01388889  -0.01388889  0.01388889 1
    0.01620370  -0.01620370  0.01620370 1
    0.01851852  -0.01851852  0.01851852 1
    0.02083333  -0.02083333  0.02083333 1
    0.02314815  -0.02314815  0.02314815 1
    0.02546296  -0.02546296  0.02546296 1
    0.02777778  -0.02777778  0.02777778 1
    0.03009259  -0.03009259  0.03009259 1
    0.03240741  -0.03240741  0.03240741 1
    0.03472222  -0.03472222  0.03472222 1
    0.03703704  -0.03703704  0.03703704 1
    0.03935185  -0.03935185  0.03935185 1
    0.04166667  -0.04166667  0.04166667 1
    0.04398148  -0.04398148  0.04398148 1
    0.04629630  -0.04629630  0.04629630 1
    0.04861111  -0.04861111  0.04861111 1
    0.05092593  -0.05092593  0.05092593 1
    0.05324074  -0.05324074  0.05324074 1
    0.05555556  -0.05555556  0.05555556 1
    0.05787037  -0.05787037  0.05787037 1
    0.06018519  -0.06018519  0.06018519 1
    0.06250000  -0.06250000  0.06250000 1
    0.06481481  -0.06481481  0.06481481 1
    0.06712963  -0.06712963  0.06712963 1
    0.06944444  -0.06944444  0.06944444 1
    0.07175926  -0.07175926  0.07175926 1
    0.07407407  -0.07407407  0.07407407 1
    0.07638889  -0.07638889  0.07638889 1
    0.07870370  -0.07870370  0.07870370 1
    0.08101852  -0.08101852  0.08101852 1
    0.08333333  -0.08333333  0.08333333 1
    0.08564815  -0.08564815  0.08564815 1
    0.08796296  -0.08796296  0.08796296 1
    0.09027778  -0.09027778  0.09027778 1
    0.09259259  -0.09259259  0.09259259 1
    0.09490741  -0.09490741  0.09490741 1
    0.09722222  -0.09722222  0.09722222 1
    0.09953704  -0.09953704  0.09953704 1
    0.10185185  -0.10185185  0.10185185 1
    0.10416667  -0.10416667  0.10416667 1
    0.10648148  -0.10648148  0.10648148 1
    0.10879630  -0.10879630  0.10879630 1
    0.11111111  -0.11111111  0.11111111 1
    0.11342593  -0.11342593  0.11342593 1
    0.11574074  -0.11574074  0.11574074 1
    0.11805556  -0.11805556  0.11805556 1
    0.12037037  -0.12037037  0.12037037 1
    0.12268519  -0.12268519  0.12268519 1
    0.12500000  -0.12500000  0.12500000 1
    0.12731481  -0.12731481  0.12731481 1
    0.12962963  -0.12962963  0.12962963 1
    0.13194444  -0.13194444  0.13194444 1
    0.13425926  -0.13425926  0.13425926 1
    0.13657407  -0.13657407  0.13657407 1
    0.13888889  -0.13888889  0.13888889 1
    0.14120370  -0.14120370  0.14120370 1
    0.14351852  -0.14351852  0.14351852 1
    0.14583333  -0.14583333  0.14583333 1
    0.14814815  -0.14814815  0.14814815 1
    0.15046296  -0.15046296  0.15046296 1
    0.15277778  -0.15277778  0.15277778 1
    0.15509259  -0.15509259  0.15509259 1
    0.15740741  -0.15740741  0.15740741 1
    0.15972222  -0.15972222  0.15972222 1
    0.16203704  -0.16203704  0.16203704 1
    0.16435185  -0.16435185  0.16435185 1
    0.16666667  -0.16666667  0.16666667 1
    0.16898148  -0.16898148  0.16898148 1
    0.17129630  -0.17129630  0.17129630 1
    0.17361111  -0.17361111  0.17361111 1
    0.17592593  -0.17592593  0.17592593 1
    0.17824074  -0.17824074  0.17824074 1
    0.18055556  -0.18055556  0.18055556 1
    0.18287037  -0.18287037  0.18287037 1
    0.18518519  -0.18518519  0.18518519 1
    0.18750000  -0.18750000  0.18750000 1
    0.18981481  -0.18981481  0.18981481 1
    0.19212963  -0.19212963  0.19212963 1
    0.19444444  -0.19444444  0.19444444 1
    0.19675926  -0.19675926  0.19675926 1
    0.19907407  -0.19907407  0.19907407 1
    0.20138889  -0.20138889  0.20138889 1
    0.20370370  -0.20370370  0.20370370 1
    0.20601852  -0.20601852  0.20601852 1
    0.20833333  -0.20833333  0.20833333 1
    0.21064815  -0.21064815  0.21064815 1
    0.21296296  -0.21296296  0.21296296 1
    0.21527778  -0.21527778  0.21527778 1
    0.21759259  -0.21759259  0.21759259 1
    0.21990741  -0.21990741  0.21990741 1
    0.22222222  -0.22222222  0.22222222 1
    0.22453704  -0.22453704  0.22453704 1
    0.22685185  -0.22685185  0.22685185 1
    0.22916667  -0.22916667  0.22916667 1
    0.23148148  -0.23148148  0.23148148 1
    0.23379630  -0.23379630  0.23379630 1
    0.23611111  -0.23611111  0.23611111 1
    0.23842593  -0.23842593  0.23842593 1
    0.24074074  -0.24074074  0.24074074 1
    0.24305556  -0.24305556  0.24305556 1
    0.24537037  -0.24537037  0.24537037 1
    0.24768519  -0.24768519  0.24768519 1
    0.25000000  -0.25000000  0.25000000 1
    0.25231481  -0.25231481  0.25231481 1
    0.25462963  -0.25462963  0.25462963 1
    0.25694444  -0.25694444  0.25694444 1
    0.25925926  -0.25925926  0.25925926 1
    0.26157407  -0.26157407  0.26157407 1
    0.26388889  -0.26388889  0.26388889 1
    0.26620370  -0.26620370  0.26620370 1
    0.26851852  -0.26851852  0.26851852 1
    0.27083333  -0.27083333  0.27083333 1
    0.27314815  -0.27314815  0.27314815 1
    0.27546296  -0.27546296  0.27546296 1
    0.27777778  -0.27777778  0.27777778 1
    0.28009259  -0.28009259  0.28009259 1
    0.28240741  -0.28240741  0.28240741 1
    0.28472222  -0.28472222  0.28472222 1
    0.28703704  -0.28703704  0.28703704 1
    0.28935185  -0.28935185  0.28935185 1
    0.29166667  -0.29166667  0.29166667 1
    0.29398148  -0.29398148  0.29398148 1
    0.29629630  -0.29629630  0.29629630 1
    0.29861111  -0.29861111  0.29861111 1
    0.30092593  -0.30092593  0.30092593 1
    0.30324074  -0.30324074  0.30324074 1
    0.30555556  -0.30555556  0.30555556 1
    0.30787037  -0.30787037  0.30787037 1
    0.31018519  -0.31018519  0.31018519 1
    0.31250000  -0.31250000  0.31250000 1
    0.31481481  -0.31481481  0.31481481 1
    0.31712963  -0.31712963  0.31712963 1
    0.31944444  -0.31944444  0.31944444 1
    0.32175926  -0.32175926  0.32175926 1
    0.32407407  -0.32407407  0.32407407 1
    0.32638889  -0.32638889  0.32638889 1
    0.32870370  -0.32870370  0.32870370 1
    0.33101852  -0.33101852  0.33101852 1
    0.33333333  -0.33333333  0.33333333 1
    0.33564815  -0.33564815  0.33564815 1
    0.33796296  -0.33796296  0.33796296 1
    0.34027778  -0.34027778  0.34027778 1
    0.34259259  -0.34259259  0.34259259 1
    0.34490741  -0.34490741  0.34490741 1
    0.34722222  -0.34722222  0.34722222 1
    0.34953704  -0.34953704  0.34953704 1
    0.35185185  -0.35185185  0.35185185 1
    0.35416667  -0.35416667  0.35416667 1
    0.35648148  -0.35648148  0.35648148 1
    0.35879630  -0.35879630  0.35879630 1
    0.36111111  -0.36111111  0.36111111 1
    0.36342593  -0.36342593  0.36342593 1
    0.36574074  -0.36574074  0.36574074 1
    0.36805556  -0.36805556  0.36805556 1
    0.37037037  -0.37037037  0.37037037 1
    0.37268519  -0.37268519  0.37268519 1
    0.37500000  -0.37500000  0.37500000 1
    0.37731481  -0.37731481  0.37731481 1
    0.37962963  -0.37962963  0.37962963 1
    0.38194444  -0.38194444  0.38194444 1
    0.38425926  -0.38425926  0.38425926 1
    0.38657407  -0.38657407  0.38657407 1
    0.38888889  -0.38888889  0.38888889 1
    0.39120370  -0.39120370  0.39120370 1
    0.39351852  -0.39351852  0.39351852 1
    0.39583333  -0.39583333  0.39583333 1
    0.39814815  -0.39814815  0.39814815 1
    0.40046296  -0.40046296  0.40046296 1
    0.40277778  -0.40277778  0.40277778 1
    0.40509259  -0.40509259  0.40509259 1
    0.40740741  -0.40740741  0.40740741 1
    0.40972222  -0.40972222  0.40972222 1
    0.41203704  -0.41203704  0.41203704 1
    0.41435185  -0.41435185  0.41435185 1
    0.41666667  -0.41666667  0.41666667 1
    0.41898148  -0.41898148  0.41898148 1
    0.42129630  -0.42129630  0.42129630 1
    0.42361111  -0.42361111  0.42361111 1
    0.42592593  -0.42592593  0.42592593 1
    0.42824074  -0.42824074  0.42824074 1
    0.43055556  -0.43055556  0.43055556 1
    0.43287037  -0.43287037  0.43287037 1
    0.43518519  -0.43518519  0.43518519 1
    0.43750000  -0.43750000  0.43750000 1
    0.43981481  -0.43981481  0.43981481 1
    0.44212963  -0.44212963  0.44212963 1
    0.44444444  -0.44444444  0.44444444 1
    0.44675926  -0.44675926  0.44675926 1
    0.44907407  -0.44907407  0.44907407 1
    0.45138889  -0.45138889  0.45138889 1
    0.45370370  -0.45370370  0.45370370 1
    0.45601852  -0.45601852  0.45601852 1
    0.45833333  -0.45833333  0.45833333 1
    0.46064815  -0.46064815  0.46064815 1
    0.46296296  -0.46296296  0.46296296 1
    0.46527778  -0.46527778  0.46527778 1
    0.46759259  -0.46759259  0.46759259 1
    0.46990741  -0.46990741  0.46990741 1
    0.47222222  -0.47222222  0.47222222 1
    0.47453704  -0.47453704  0.47453704 1
    0.47685185  -0.47685185  0.47685185 1
    0.47916667  -0.47916667  0.47916667 1
    0.48148148  -0.48148148  0.48148148 1
    0.48379630  -0.48379630  0.48379630 1
    0.48611111  -0.48611111  0.48611111 1
    0.48842593  -0.48842593  0.48842593 1
    0.49074074  -0.49074074  0.49074074 1
    0.49305556  -0.49305556  0.49305556 1
    0.49537037  -0.49537037  0.49537037 1
    0.49768519  -0.49768519  0.49768519 1
    0.50000000  -0.50000000  0.50000000 1
    0.49671053  -0.49671053  0.50000000 1
    0.49342105  -0.49342105  0.50000000 1
    0.49013158  -0.49013158  0.50000000 1
    0.48684211  -0.48684211  0.50000000 1
    0.48355263  -0.48355263  0.50000000 1
    0.48026316  -0.48026316  0.50000000 1
    0.47697368  -0.47697368  0.50000000 1
    0.47368421  -0.47368421  0.50000000 1
    0.47039474  -0.47039474  0.50000000 1
    0.46710526  -0.46710526  0.50000000 1
    0.46381579  -0.46381579  0.50000000 1
    0.46052632  -0.46052632  0.50000000 1
    0.45723684  -0.45723684  0.50000000 1
    0.45394737  -0.45394737  0.50000000 1
    0.45065789  -0.45065789  0.50000000 1
    0.44736842  -0.44736842  0.50000000 1
    0.44407895  -0.44407895  0.50000000 1
    0.44078947  -0.44078947  0.50000000 1
    0.43750000  -0.43750000  0.50000000 1
    0.43421053  -0.43421053  0.50000000 1
    0.43092105  -0.43092105  0.50000000 1
    0.42763158  -0.42763158  0.50000000 1
    0.42434211  -0.42434211  0.50000000 1
    0.42105263  -0.42105263  0.50000000 1
    0.41776316  -0.41776316  0.50000000 1
    0.41447368  -0.41447368  0.50000000 1
    0.41118421  -0.41118421  0.50000000 1
    0.40789474  -0.40789474  0.50000000 1
    0.40460526  -0.40460526  0.50000000 1
    0.40131579  -0.40131579  0.50000000 1
    0.39802632  -0.39802632  0.50000000 1
    0.39473684  -0.39473684  0.50000000 1
    0.39144737  -0.39144737  0.50000000 1
    0.38815789  -0.38815789  0.50000000 1
    0.38486842  -0.38486842  0.50000000 1
    0.38157895  -0.38157895  0.50000000 1
    0.37828947  -0.37828947  0.50000000 1
    0.37500000  -0.37500000  0.50000000 1
    0.37171053  -0.37171053  0.50000000 1
    0.36842105  -0.36842105  0.50000000 1
    0.36513158  -0.36513158  0.50000000 1
    0.36184211  -0.36184211  0.50000000 1
    0.35855263  -0.35855263  0.50000000 1
    0.35526316  -0.35526316  0.50000000 1
    0.35197368  -0.35197368  0.50000000 1
    0.34868421  -0.34868421  0.50000000 1
    0.34539474  -0.34539474  0.50000000 1
    0.34210526  -0.34210526  0.50000000 1
    0.33881579  -0.33881579  0.50000000 1
    0.33552632  -0.33552632  0.50000000 1
    0.33223684  -0.33223684  0.50000000 1
    0.32894737  -0.32894737  0.50000000 1
    0.32565789  -0.32565789  0.50000000 1
    0.32236842  -0.32236842  0.50000000 1
    0.31907895  -0.31907895  0.50000000 1
    0.31578947  -0.31578947  0.50000000 1
    0.31250000  -0.31250000  0.50000000 1
    0.30921053  -0.30921053  0.50000000 1
    0.30592105  -0.30592105  0.50000000 1
    0.30263158  -0.30263158  0.50000000 1
    0.29934211  -0.29934211  0.50000000 1
    0.29605263  -0.29605263  0.50000000 1
    0.29276316  -0.29276316  0.50000000 1
    0.28947368  -0.28947368  0.50000000 1
    0.28618421  -0.28618421  0.50000000 1
    0.28289474  -0.28289474  0.50000000 1
    0.27960526  -0.27960526  0.50000000 1
    0.27631579  -0.27631579  0.50000000 1
    0.27302632  -0.27302632  0.50000000 1
    0.26973684  -0.26973684  0.50000000 1
    0.26644737  -0.26644737  0.50000000 1
    0.26315789  -0.26315789  0.50000000 1
    0.25986842  -0.25986842  0.50000000 1
    0.25657895  -0.25657895  0.50000000 1
    0.25328947  -0.25328947  0.50000000 1
    0.25000000  -0.25000000  0.50000000 1
    0.24671053  -0.24671053  0.50000000 1
    0.24342105  -0.24342105  0.50000000 1
    0.24013158  -0.24013158  0.50000000 1
    0.23684211  -0.23684211  0.50000000 1
    0.23355263  -0.23355263  0.50000000 1
    0.23026316  -0.23026316  0.50000000 1
    0.22697368  -0.22697368  0.50000000 1
    0.22368421  -0.22368421  0.50000000 1
    0.22039474  -0.22039474  0.50000000 1
    0.21710526  -0.21710526  0.50000000 1
    0.21381579  -0.21381579  0.50000000 1
    0.21052632  -0.21052632  0.50000000 1
    0.20723684  -0.20723684  0.50000000 1
    0.20394737  -0.20394737  0.50000000 1
    0.20065789  -0.20065789  0.50000000 1
    0.19736842  -0.19736842  0.50000000 1
    0.19407895  -0.19407895  0.50000000 1
    0.19078947  -0.19078947  0.50000000 1
    0.18750000  -0.18750000  0.50000000 1
    0.18421053  -0.18421053  0.50000000 1
    0.18092105  -0.18092105  0.50000000 1
    0.17763158  -0.17763158  0.50000000 1
    0.17434211  -0.17434211  0.50000000 1
    0.17105263  -0.17105263  0.50000000 1
    0.16776316  -0.16776316  0.50000000 1
    0.16447368  -0.16447368  0.50000000 1
    0.16118421  -0.16118421  0.50000000 1
    0.15789474  -0.15789474  0.50000000 1
    0.15460526  -0.15460526  0.50000000 1
    0.15131579  -0.15131579  0.50000000 1
    0.14802632  -0.14802632  0.50000000 1
    0.14473684  -0.14473684  0.50000000 1
    0.14144737  -0.14144737  0.50000000 1
    0.13815789  -0.13815789  0.50000000 1
    0.13486842  -0.13486842  0.50000000 1
    0.13157895  -0.13157895  0.50000000 1
    0.12828947  -0.12828947  0.50000000 1
    0.12500000  -0.12500000  0.50000000 1
    0.12171053  -0.12171053  0.50000000 1
    0.11842105  -0.11842105  0.50000000 1
    0.11513158  -0.11513158  0.50000000 1
    0.11184211  -0.11184211  0.50000000 1
    0.10855263  -0.10855263  0.50000000 1
    0.10526316  -0.10526316  0.50000000 1
    0.10197368  -0.10197368  0.50000000 1
    0.09868421  -0.09868421  0.50000000 1
    0.09539474  -0.09539474  0.50000000 1
    0.09210526  -0.09210526  0.50000000 1
    0.08881579  -0.08881579  0.50000000 1
    0.08552632  -0.08552632  0.50000000 1
    0.08223684  -0.08223684  0.50000000 1
    0.07894737  -0.07894737  0.50000000 1
    0.07565789  -0.07565789  0.50000000 1
    0.07236842  -0.07236842  0.50000000 1
    0.06907895  -0.06907895  0.50000000 1
    0.06578947  -0.06578947  0.50000000 1
    0.06250000  -0.06250000  0.50000000 1
    0.05921053  -0.05921053  0.50000000 1
    0.05592105  -0.05592105  0.50000000 1
    0.05263158  -0.05263158  0.50000000 1
    0.04934211  -0.04934211  0.50000000 1
    0.04605263  -0.04605263  0.50000000 1
    0.04276316  -0.04276316  0.50000000 1
    0.03947368  -0.03947368  0.50000000 1
    0.03618421  -0.03618421  0.50000000 1
    0.03289474  -0.03289474  0.50000000 1
    0.02960526  -0.02960526  0.50000000 1
    0.02631579  -0.02631579  0.50000000 1
    0.02302632  -0.02302632  0.50000000 1
    0.01973684  -0.01973684  0.50000000 1
    0.01644737  -0.01644737  0.50000000 1
    0.01315789  -0.01315789  0.50000000 1
    0.00986842  -0.00986842  0.50000000 1
    0.00657895  -0.00657895  0.50000000 1
    0.00328947  -0.00328947  0.50000000 1
    0.00000000  0.00000000  0.50000000 1
    0.00000000  0.00000000  0.49671053 1
    0.00000000  0.00000000  0.49342105 1
    0.00000000  0.00000000  0.49013158 1
    0.00000000  0.00000000  0.48684211 1
    0.00000000  0.00000000  0.48355263 1
    0.00000000  0.00000000  0.48026316 1
    0.00000000  0.00000000  0.47697368 1
    0.00000000  0.00000000  0.47368421 1
    0.00000000  0.00000000  0.47039474 1
    0.00000000  0.00000000  0.46710526 1
    0.00000000  0.00000000  0.46381579 1
    0.00000000  0.00000000  0.46052632 1
    0.00000000  0.00000000  0.45723684 1
    0.00000000  0.00000000  0.45394737 1
    0.00000000  0.00000000  0.45065789 1
    0.00000000  0.00000000  0.44736842 1
    0.00000000  0.00000000  0.44407895 1
    0.00000000  0.00000000  0.44078947 1
    0.00000000  0.00000000  0.43750000 1
    0.00000000  0.00000000  0.43421053 1
    0.00000000  0.00000000  0.43092105 1
    0.00000000  0.00000000  0.42763158 1
    0.00000000  0.00000000  0.42434211 1
    0.00000000  0.00000000  0.42105263 1
    0.00000000  0.00000000  0.41776316 1
    0.00000000  0.00000000  0.41447368 1
    0.00000000  0.00000000  0.41118421 1
    0.00000000  0.00000000  0.40789474 1
    0.00000000  0.00000000  0.40460526 1
    0.00000000  0.00000000  0.40131579 1
    0.00000000  0.00000000  0.39802632 1
    0.00000000  0.00000000  0.39473684 1
    0.00000000  0.00000000  0.39144737 1
    0.00000000  0.00000000  0.38815789 1
    0.00000000  0.00000000  0.38486842 1
    0.00000000  0.00000000  0.38157895 1
    0.00000000  0.00000000  0.37828947 1
    0.00000000  0.00000000  0.37500000 1
    0.00000000  0.00000000  0.37171053 1
    0.00000000  0.00000000  0.36842105 1
    0.00000000  0.00000000  0.36513158 1
    0.00000000  0.00000000  0.36184211 1
    0.00000000  0.00000000  0.35855263 1
    0.00000000  0.00000000  0.35526316 1
    0.00000000  0.00000000  0.35197368 1
    0.00000000  0.00000000  0.34868421 1
    0.00000000  0.00000000  0.34539474 1
    0.00000000  0.00000000  0.34210526 1
    0.00000000  0.00000000  0.33881579 1
    0.00000000  0.00000000  0.33552632 1
    0.00000000  0.00000000  0.33223684 1
    0.00000000  0.00000000  0.32894737 1
    0.00000000  0.00000000  0.32565789 1
    0.00000000  0.00000000  0.32236842 1
    0.00000000  0.00000000  0.31907895 1
    0.00000000  0.00000000  0.31578947 1
    0.00000000  0.00000000  0.31250000 1
    0.00000000  0.00000000  0.30921053 1
    0.00000000  0.00000000  0.30592105 1
    0.00000000  0.00000000  0.30263158 1
    0.00000000  0.00000000  0.29934211 1
    0.00000000  0.00000000  0.29605263 1
    0.00000000  0.00000000  0.29276316 1
    0.00000000  0.00000000  0.28947368 1
    0.00000000  0.00000000  0.28618421 1
    0.00000000  0.00000000  0.28289474 1
    0.00000000  0.00000000  0.27960526 1
    0.00000000  0.00000000  0.27631579 1
    0.00000000  0.00000000  0.27302632 1
    0.00000000  0.00000000  0.26973684 1
    0.00000000  0.00000000  0.26644737 1
    0.00000000  0.00000000  0.26315789 1
    0.00000000  0.00000000  0.25986842 1
    0.00000000  0.00000000  0.25657895 1
    0.00000000  0.00000000  0.25328947 1
    0.00000000  0.00000000  0.25000000 1
    0.00000000  0.00000000  0.24671053 1
    0.00000000  0.00000000  0.24342105 1
    0.00000000  0.00000000  0.24013158 1
    0.00000000  0.00000000  0.23684211 1
    0.00000000  0.00000000  0.23355263 1
    0.00000000  0.00000000  0.23026316 1
    0.00000000  0.00000000  0.22697368 1
    0.00000000  0.00000000  0.22368421 1
    0.00000000  0.00000000  0.22039474 1
    0.00000000  0.00000000  0.21710526 1
    0.00000000  0.00000000  0.21381579 1
    0.00000000  0.00000000  0.21052632 1
    0.00000000  0.00000000  0.20723684 1
    0.00000000  0.00000000  0.20394737 1
    0.00000000  0.00000000  0.20065789 1
    0.00000000  0.00000000  0.19736842 1
    0.00000000  0.00000000  0.19407895 1
    0.00000000  0.00000000  0.19078947 1
    0.00000000  0.00000000  0.18750000 1
    0.00000000  0.00000000  0.18421053 1
    0.00000000  0.00000000  0.18092105 1
    0.00000000  0.00000000  0.17763158 1
    0.00000000  0.00000000  0.17434211 1
    0.00000000  0.00000000  0.17105263 1
    0.00000000  0.00000000  0.16776316 1
    0.00000000  0.00000000  0.16447368 1
    0.00000000  0.00000000  0.16118421 1
    0.00000000  0.00000000  0.15789474 1
    0.00000000  0.00000000  0.15460526 1
    0.00000000  0.00000000  0.15131579 1
    0.00000000  0.00000000  0.14802632 1
    0.00000000  0.00000000  0.14473684 1
    0.00000000  0.00000000  0.14144737 1
    0.00000000  0.00000000  0.13815789 1
    0.00000000  0.00000000  0.13486842 1
    0.00000000  0.00000000  0.13157895 1
    0.00000000  0.00000000  0.12828947 1
    0.00000000  0.00000000  0.12500000 1
    0.00000000  0.00000000  0.12171053 1
    0.00000000  0.00000000  0.11842105 1
    0.00000000  0.00000000  0.11513158 1
    0.00000000  0.00000000  0.11184211 1
    0.00000000  0.00000000  0.10855263 1
    0.00000000  0.00000000  0.10526316 1
    0.00000000  0.00000000  0.10197368 1
    0.00000000  0.00000000  0.09868421 1
    0.00000000  0.00000000  0.09539474 1
    0.00000000  0.00000000  0.09210526 1
    0.00000000  0.00000000  0.08881579 1
    0.00000000  0.00000000  0.08552632 1
    0.00000000  0.00000000  0.08223684 1
    0.00000000  0.00000000  0.07894737 1
    0.00000000  0.00000000  0.07565789 1
    0.00000000  0.00000000  0.07236842 1
    0.00000000  0.00000000  0.06907895 1
    0.00000000  0.00000000  0.06578947 1
    0.00000000  0.00000000  0.06250000 1
    0.00000000  0.00000000  0.05921053 1
    0.00000000  0.00000000  0.05592105 1
    0.00000000  0.00000000  0.05263158 1
    0.00000000  0.00000000  0.04934211 1
    0.00000000  0.00000000  0.04605263 1
    0.00000000  0.00000000  0.04276316 1
    0.00000000  0.00000000  0.03947368 1
    0.00000000  0.00000000  0.03618421 1
    0.00000000  0.00000000  0.03289474 1
    0.00000000  0.00000000  0.02960526 1
    0.00000000  0.00000000  0.02631579 1
    0.00000000  0.00000000  0.02302632 1
    0.00000000  0.00000000  0.01973684 1
    0.00000000  0.00000000  0.01644737 1
    0.00000000  0.00000000  0.01315789 1
    0.00000000  0.00000000  0.00986842 1
    0.00000000  0.00000000  0.00657895 1
    0.00000000  0.00000000  0.00328947 1
    0.00000000  0.00000000  0.00000000 1
    0.00134409  0.00134409  0.00134409 1
    0.00268817  0.00268817  0.00268817 1
    0.00403226  0.00403226  0.00403226 1
    0.00537634  0.00537634  0.00537634 1
    0.00672043  0.00672043  0.00672043 1
    0.00806452  0.00806452  0.00806452 1
    0.00940860  0.00940860  0.00940860 1
    0.01075269  0.01075269  0.01075269 1
    0.01209677  0.01209677  0.01209677 1
    0.01344086  0.01344086  0.01344086 1
    0.01478495  0.01478495  0.01478495 1
    0.01612903  0.01612903  0.01612903 1
    0.01747312  0.01747312  0.01747312 1
    0.01881720  0.01881720  0.01881720 1
    0.02016129  0.02016129  0.02016129 1
    0.02150538  0.02150538  0.02150538 1
    0.02284946  0.02284946  0.02284946 1
    0.02419355  0.02419355  0.02419355 1
    0.02553763  0.02553763  0.02553763 1
    0.02688172  0.02688172  0.02688172 1
    0.02822581  0.02822581  0.02822581 1
    0.02956989  0.02956989  0.02956989 1
    0.03091398  0.03091398  0.03091398 1
    0.03225806  0.03225806  0.03225806 1
    0.03360215  0.03360215  0.03360215 1
    0.03494624  0.03494624  0.03494624 1
    0.03629032  0.03629032  0.03629032 1
    0.03763441  0.03763441  0.03763441 1
    0.03897849  0.03897849  0.03897849 1
    0.04032258  0.04032258  0.04032258 1
    0.04166667  0.04166667  0.04166667 1
    0.04301075  0.04301075  0.04301075 1
    0.04435484  0.04435484  0.04435484 1
    0.04569892  0.04569892  0.04569892 1
    0.04704301  0.04704301  0.04704301 1
    0.04838710  0.04838710  0.04838710 1
    0.04973118  0.04973118  0.04973118 1
    0.05107527  0.05107527  0.05107527 1
    0.05241935  0.05241935  0.05241935 1
    0.05376344  0.05376344  0.05376344 1
    0.05510753  0.05510753  0.05510753 1
    0.05645161  0.05645161  0.05645161 1
    0.05779570  0.05779570  0.05779570 1
    0.05913978  0.05913978  0.05913978 1
    0.06048387  0.06048387  0.06048387 1
    0.06182796  0.06182796  0.06182796 1
    0.06317204  0.06317204  0.06317204 1
    0.06451613  0.06451613  0.06451613 1
    0.06586022  0.06586022  0.06586022 1
    0.06720430  0.06720430  0.06720430 1
    0.06854839  0.06854839  0.06854839 1
    0.06989247  0.06989247  0.06989247 1
    0.07123656  0.07123656  0.07123656 1
    0.07258065  0.07258065  0.07258065 1
    0.07392473  0.07392473  0.07392473 1
    0.07526882  0.07526882  0.07526882 1
    0.07661290  0.07661290  0.07661290 1
    0.07795699  0.07795699  0.07795699 1
    0.07930108  0.07930108  0.07930108 1
    0.08064516  0.08064516  0.08064516 1
    0.08198925  0.08198925  0.08198925 1
    0.08333333  0.08333333  0.08333333 1
    0.08467742  0.08467742  0.08467742 1
    0.08602151  0.08602151  0.08602151 1
    0.08736559  0.08736559  0.08736559 1
    0.08870968  0.08870968  0.08870968 1
    0.09005376  0.09005376  0.09005376 1
    0.09139785  0.09139785  0.09139785 1
    0.09274194  0.09274194  0.09274194 1
    0.09408602  0.09408602  0.09408602 1
    0.09543011  0.09543011  0.09543011 1
    0.09677419  0.09677419  0.09677419 1
    0.09811828  0.09811828  0.09811828 1
    0.09946237  0.09946237  0.09946237 1
    0.10080645  0.10080645  0.10080645 1
    0.10215054  0.10215054  0.10215054 1
    0.10349462  0.10349462  0.10349462 1
    0.10483871  0.10483871  0.10483871 1
    0.10618280  0.10618280  0.10618280 1
    0.10752688  0.10752688  0.10752688 1
    0.10887097  0.10887097  0.10887097 1
    0.11021505  0.11021505  0.11021505 1
    0.11155914  0.11155914  0.11155914 1
    0.11290323  0.11290323  0.11290323 1
    0.11424731  0.11424731  0.11424731 1
    0.11559140  0.11559140  0.11559140 1
    0.11693548  0.11693548  0.11693548 1
    0.11827957  0.11827957  0.11827957 1
    0.11962366  0.11962366  0.11962366 1
    0.12096774  0.12096774  0.12096774 1
    0.12231183  0.12231183  0.12231183 1
    0.12365591  0.12365591  0.12365591 1
    0.12500000  0.12500000  0.12500000 1
    0.12634409  0.12634409  0.12634409 1
    0.12768817  0.12768817  0.12768817 1
    0.12903226  0.12903226  0.12903226 1
    0.13037634  0.13037634  0.13037634 1
    0.13172043  0.13172043  0.13172043 1
    0.13306452  0.13306452  0.13306452 1
    0.13440860  0.13440860  0.13440860 1
    0.13575269  0.13575269  0.13575269 1
    0.13709677  0.13709677  0.13709677 1
    0.13844086  0.13844086  0.13844086 1
    0.13978495  0.13978495  0.13978495 1
    0.14112903  0.14112903  0.14112903 1
    0.14247312  0.14247312  0.14247312 1
    0.14381720  0.14381720  0.14381720 1
    0.14516129  0.14516129  0.14516129 1
    0.14650538  0.14650538  0.14650538 1
    0.14784946  0.14784946  0.14784946 1
    0.14919355  0.14919355  0.14919355 1
    0.15053763  0.15053763  0.15053763 1
    0.15188172  0.15188172  0.15188172 1
    0.15322581  0.15322581  0.15322581 1
    0.15456989  0.15456989  0.15456989 1
    0.15591398  0.15591398  0.15591398 1
    0.15725806  0.15725806  0.15725806 1
    0.15860215  0.15860215  0.15860215 1
    0.15994624  0.15994624  0.15994624 1
    0.16129032  0.16129032  0.16129032 1
    0.16263441  0.16263441  0.16263441 1
    0.16397849  0.16397849  0.16397849 1
    0.16532258  0.16532258  0.16532258 1
    0.16666667  0.16666667  0.16666667 1
    0.16801075  0.16801075  0.16801075 1
    0.16935484  0.16935484  0.16935484 1
    0.17069892  0.17069892  0.17069892 1
    0.17204301  0.17204301  0.17204301 1
    0.17338710  0.17338710  0.17338710 1
    0.17473118  0.17473118  0.17473118 1
    0.17607527  0.17607527  0.17607527 1
    0.17741935  0.17741935  0.17741935 1
    0.17876344  0.17876344  0.17876344 1
    0.18010753  0.18010753  0.18010753 1
    0.18145161  0.18145161  0.18145161 1
    0.18279570  0.18279570  0.18279570 1
    0.18413978  0.18413978  0.18413978 1
    0.18548387  0.18548387  0.18548387 1
    0.18682796  0.18682796  0.18682796 1
    0.18817204  0.18817204  0.18817204 1
    0.18951613  0.18951613  0.18951613 1
    0.19086022  0.19086022  0.19086022 1
    0.19220430  0.19220430  0.19220430 1
    0.19354839  0.19354839  0.19354839 1
    0.19489247  0.19489247  0.19489247 1
    0.19623656  0.19623656  0.19623656 1
    0.19758065  0.19758065  0.19758065 1
    0.19892473  0.19892473  0.19892473 1
    0.20026882  0.20026882  0.20026882 1
    0.20161290  0.20161290  0.20161290 1
    0.20295699  0.20295699  0.20295699 1
    0.20430108  0.20430108  0.20430108 1
    0.20564516  0.20564516  0.20564516 1
    0.20698925  0.20698925  0.20698925 1
    0.20833333  0.20833333  0.20833333 1
    0.20967742  0.20967742  0.20967742 1
    0.21102151  0.21102151  0.21102151 1
    0.21236559  0.21236559  0.21236559 1
    0.21370968  0.21370968  0.21370968 1
    0.21505376  0.21505376  0.21505376 1
    0.21639785  0.21639785  0.21639785 1
    0.21774194  0.21774194  0.21774194 1
    0.21908602  0.21908602  0.21908602 1
    0.22043011  0.22043011  0.22043011 1
    0.22177419  0.22177419  0.22177419 1
    0.22311828  0.22311828  0.22311828 1
    0.22446237  0.22446237  0.22446237 1
    0.22580645  0.22580645  0.22580645 1
    0.22715054  0.22715054  0.22715054 1
    0.22849462  0.22849462  0.22849462 1
    0.22983871  0.22983871  0.22983871 1
    0.23118280  0.23118280  0.23118280 1
    0.23252688  0.23252688  0.23252688 1
    0.23387097  0.23387097  0.23387097 1
    0.23521505  0.23521505  0.23521505 1
    0.23655914  0.23655914  0.23655914 1
    0.23790323  0.23790323  0.23790323 1
    0.23924731  0.23924731  0.23924731 1
    0.24059140  0.24059140  0.24059140 1
    0.24193548  0.24193548  0.24193548 1
    0.24327957  0.24327957  0.24327957 1
    0.24462366  0.24462366  0.24462366 1
    0.24596774  0.24596774  0.24596774 1