&CONTROL
  calculation = 'vc-relax',
  etot_conv_thr = 2d-06,
  forc_conv_thr = 2d-05,
  outdir = './',
  prefix = 'hea',
  pseudo_dir = '../../pseudo/',
  tprnfor = .TRUE.,
  tstress = .TRUE.,
  verbosity = 'low',
/
&SYSTEM
  degauss = 0.015,
  ecutrho = 340.0,
  ecutwfc = 85.0,
  ibrav = 0,
  nosym = .FALSE.,
  occupations = 'smearing',
  smearing = 'gauss',
  nat = 20,
  ntyp = 5,
/
&ELECTRONS
  conv_thr = 1d-10,
  diago_david_ndim = 8,
  electron_maxstep = 200,
  mixing_beta = 0.7,
  mixing_mode = 'local-TF',
/
&IONS
  ion_dynamics = 'bfgs',
  trust_radius_min = 1d-06,
/
&CELL
  cell_dynamics = 'bfgs',
  press = 1200,
  press_conv_thr = 0.1,
/
ATOMIC_SPECIES
  Hf  178.4900 Hf.upf
  Nb  92.9064 Nb.upf
  Ta  180.9479 Ta.upf
  Ti  47.8670 Ti.upf
  Zr  91.2240 Zr.upf
ATOMIC_POSITIONS crystal
  Hf 0.601377496600 0.601376136400 0.900244617700
  Hf 0.397273804100 0.397272975500 0.844323402600
  Zr 0.599424967600 0.599426334500 0.148059054000
  Zr 0.806608092100 0.806609428700 0.460164490200
  Ta 0.796988814300 0.796989504200 0.196657751800
  Ta 0.397989341700 0.397989644200 0.101359669000
  Ta 0.600649240000 0.600649898300 0.401304308100
  Ta 0.204501126200 0.204502767100 0.302279691600
  Ta 0.000480150200 0.000480938500 0.251200365500
  Ta -0.001705538100 -0.001706891100 0.750981139300
  Ta 0.802438494900 0.802437871300 0.949138683100
  Ti 0.400316217500 0.400315905800 0.596411709200
  Ti 0.199564449800 0.199564140000 0.046676980900
  Nb 0.796996313400 0.796995310200 0.697094171600
  Nb 0.005189065400 0.005189183900 0.003277055400
  Nb -0.001385300500 -0.001385100200 0.500228588100
  Nb 0.196864261500 0.196863024500 0.800748447300
  Nb 0.398971720100 0.398972613300 0.348590636000
  Nb 0.200315113800 0.200314985200 0.552578536500
  Nb 0.597142169500 0.597141329400 0.648680701800
K_POINTS automatic
  9 9 4 0 0 0
CELL_PARAMETERS angstrom
      6.3506448650      0.0014301980     -3.3983962840
      4.9815689340      3.9388609370     -3.3983973300
     -0.0060275040     -0.0020896930     10.1642538010
