&CONTROL
  calculation = 'bands',
  prefix = 'nbti',
  pseudo_dir = '../../pseudo/',
  verbosity = 'low',
/
&SYSTEM
  degauss = 0.015,
  ecutrho = 340.0,
  ecutwfc = 85.0,
  ibrav = 0,
  nbnd = 40,
  nosym = .FALSE.,
  occupations = 'smearing',
  smearing = 'gauss',
  nat = 2,
  ntyp = 2,
/
&ELECTRONS
  conv_thr = 1d-10,
  diagonalization = 'davidson',
  electron_maxstep = 40,
  mixing_beta = 0.7,
/
&IONS
/
&CELL
/
ATOMIC_SPECIES
  Nb  92.9064 Nb.upf
  Ti  47.8670 Ti.upf
ATOMIC_POSITIONS crystal
  Ti 0.500000000000 0.500000000000 0.500000000000
  Nb 0.000000000000 0.000000000000 0.000000000000
CELL_PARAMETERS angstrom
      3.2708436550      0.0000000000      0.0000000000
      0.0000000000      3.2708436550      0.0000000000
      0.0000000000      0.0000000000      3.2708436550
K_POINTS crystal
632
    0.00000000  0.00000000  0.00000000 1
    0.00000000  0.00520833  0.00000000 1
    0.00000000  0.01041667  0.00000000 1
    0.00000000  0.01562500  0.00000000 1
    0.00000000  0.02083333  0.00000000 1
    0.00000000  0.02604167  0.00000000 1
    0.00000000  0.03125000  0.00000000 1
    0.00000000  0.03645833  0.00000000 1
    0.00000000  0.04166667  0.00000000 1
    0.00000000  0.04687500  0.00000000 1
    0.00000000  0.05208333  0.00000000 1
    0.00000000  0.05729167  0.00000000 1
    0.00000000  0.06250000  0.00000000 1
    0.00000000  0.06770833  0.00000000 1
    0.00000000  0.07291667  0.00000000 1
    0.00000000  0.07812500  0.00000000 1
    0.00000000  0.08333333  0.00000000 1
    0.00000000  0.08854167  0.00000000 1
    0.00000000  0.09375000  0.00000000 1
    0.00000000  0.09895833  0.00000000 1
    0.00000000  0.10416667  0.00000000 1
    0.00000000  0.10937500  0.00000000 1
    0.00000000  0.11458333  0.00000000 1
    0.00000000  0.11979167  0.00000000 1
    0.00000000  0.12500000  0.00000000 1
    0.00000000  0.13020833  0.00000000 1
    0.00000000  0.13541667  0.00000000 1
    0.00000000  0.14062500  0.00000000 1
    0.00000000  0.14583333  0.00000000 1
    0.00000000  0.15104167  0.00000000 1
    0.00000000  0.15625000  0.00000000 1
    0.00000000  0.16145833  0.00000000 1
    0.00000000  0.16666667  0.00000000 1
    0.00000000  0.17187500  0.00000000 1
    0.00000000  0.17708333  0.00000000 1
    0.00000000  0.18229167  0.00000000 1
    0.00000000  0.18750000  0.00000000 1
    0.00000000  0.19270833  0.00000000 1
    0.00000000  0.19791667  0.00000000 1
    0.00000000  0.20312500  0.00000000 1
    0.00000000  0.20833333  0.00000000 1
    0.00000000  0.21354167  0.00000000 1
    0.00000000  0.21875000  0.00000000 1
    0.00000000  0.22395833  0.00000000 1
    0.00000000  0.22916667  0.00000000 1
    0.00000000  0.23437500  0.00000000 1
    0.00000000  0.23958333  0.00000000 1
    0.00000000  0.24479167  0.00000000 1
    0.00000000  0.25000000  0.00000000 1
    0.00000000  0.25520833  0.00000000 1
    0.00000000  0.26041667  0.00000000 1
    0.00000000  0.26562500  0.00000000 1
    0.00000000  0.27083333  0.00000000 1
    0.00000000  0.27604167  0.00000000 1
    0.00000000  0.28125000  0.00000000 1
    0.00000000  0.28645833  0.00000000 1
    0.00000000  0.29166667  0.00000000 1
    0.00000000  0.29687500  0.00000000 1
    0.00000000  0.30208333  0.00000000 1
    0.00000000  0.30729167  0.00000000 1
    0.00000000  0.31250000  0.00000000 1
    0.00000000  0.31770833  0.00000000 1
    0.00000000  0.32291667  0.00000000 1
    0.00000000  0.32812500  0.00000000 1
    0.00000000  0.33333333  0.00000000 1
    0.00000000  0.33854167  0.00000000 1
    0.00000000  0.34375000  0.00000000 1
    0.00000000  0.34895833  0.00000000 1
    0.00000000  0.35416667  0.00000000 1
    0.00000000  0.35937500  0.00000000 1
    0.00000000  0.36458333  0.00000000 1
    0.00000000  0.36979167  0.00000000 1
    0.00000000  0.37500000  0.00000000 1
    0.00000000  0.38020833  0.00000000 1
    0.00000000  0.38541667  0.00000000 1
    0.00000000  0.39062500  0.00000000 1
    0.00000000  0.39583333  0.00000000 1
    0.00000000  0.40104167  0.00000000 1
    0.00000000  0.40625000  0.00000000 1
    0.00000000  0.41145833  0.00000000 1
    0.00000000  0.41666667  0.00000000 1
    0.00000000  0.42187500  0.00000000 1
    0.00000000  0.42708333  0.00000000 1
    0.00000000  0.43229167  0.00000000 1
    0.00000000  0.43750000  0.00000000 1
    0.00000000  0.44270833  0.00000000 1
    0.00000000  0.44791667  0.00000000 1
    0.00000000  0.45312500  0.00000000 1
    0.00000000  0.45833333  0.00000000 1
    0.00000000  0.46354167  0.00000000 1
    0.00000000  0.46875000  0.00000000 1
    0.00000000  0.47395833  0.00000000 1
    0.00000000  0.47916667  0.00000000 1
    0.00000000  0.48437500  0.00000000 1
    0.00000000  0.48958333  0.00000000 1
    0.00000000  0.49479167  0.00000000 1
    0.00000000  0.50000000  0.00000000 1
    0.00520833  0.50000000  0.00000000 1
    0.01041667  0.50000000  0.00000000 1
    0.01562500  0.50000000  0.00000000 1
    0.02083333  0.50000000  0.00000000 1
    0.02604167  0.50000000  0.00000000 1
    0.03125000  0.50000000  0.00000000 1
    0.03645833  0.50000000  0.00000000 1
    0.04166667  0.50000000  0.00000000 1
    0.04687500  0.50000000  0.00000000 1
    0.05208333  0.50000000  0.00000000 1
    0.05729167  0.50000000  0.00000000 1
    0.06250000  0.50000000  0.00000000 1
    0.06770833  0.50000000  0.00000000 1
    0.07291667  0.50000000  0.00000000 1
    0.07812500  0.50000000  0.00000000 1
    0.08333333  0.50000000  0.00000000 1
    0.08854167  0.50000000  0.00000000 1
    0.09375000  0.50000000  0.00000000 1
    0.09895833  0.50000000  0.00000000 1
    0.10416667  0.50000000  0.00000000 1
    0.10937500  0.50000000  0.00000000 1
    0.11458333  0.50000000  0.00000000 1
    0.11979167  0.50000000  0.00000000 1
    0.12500000  0.50000000  0.00000000 1
    0.13020833  0.50000000  0.00000000 1
    0.13541667  0.50000000  0.00000000 1
    0.14062500  0.50000000  0.00000000 1
    0.14583333  0.50000000  0.00000000 1
    0.15104167  0.50000000  0.00000000 1
    0.15625000  0.50000000  0.00000000 1
    0.16145833  0.50000000  0.00000000 1
    0.16666667  0.50000000  0.00000000 1
    0.17187500  0.50000000  0.00000000 1
    0.17708333  0.50000000  0.00000000 1
    0.18229167  0.50000000  0.00000000 1
    0.18750000  0.50000000  0.00000000 1
    0.19270833  0.50000000  0.00000000 1
    0.19791667  0.50000000  0.00000000 1
    0.20312500  0.50000000  0.00000000 1
    0.20833333  0.50000000  0.00000000 1
    0.21354167  0.50000000  0.00000000 1
    0.21875000  0.50000000  0.00000000 1
    0.22395833  0.50000000  0.00000000 1
    0.22916667  0.50000000  0.00000000 1
    0.23437500  0.50000000  0.00000000 1
    0.23958333  0.50000000  0.00000000 1
    0.24479167  0.50000000  0.00000000 1
    0.25000000  0.50000000  0.00000000 1
    0.25520833  0.50000000  0.00000000 1
    0.26041667  0.50000000  0.00000000 1
    0.26562500  0.50000000  0.00000000 1
    0.27083333  0.50000000  0.00000000 1
    0.27604167  0.50000000  0.00000000 1
    0.28125000  0.50000000  0.00000000 1
    0.28645833  0.50000000  0.00000000 1
    0.29166667  0.50000000  0.00000000 1
    0.29687500  0.50000000  0.00000000 1
    0.30208333  0.50000000  0.00000000 1
    0.30729167  0.50000000  0.00000000 1
    0.31250000  0.50000000  0.00000000 1
    0.31770833  0.50000000  0.00000000 1
    0.32291667  0.50000000  0.00000000 1
    0.32812500  0.50000000  0.00000000 1
    0.33333333  0.50000000  0.00000000 1
    0.33854167  0.50000000  0.00000000 1
    0.34375000  0.50000000  0.00000000 1
    0.34895833  0.50000000  0.00000000 1
    0.35416667  0.50000000  0.00000000 1
    0.35937500  0.50000000  0.00000000 1
    0.36458333  0.50000000  0.00000000 1
    0.36979167  0.50000000  0.00000000 1
    0.37500000  0.50000000  0.00000000 1
    0.38020833  0.50000000  0.00000000 1
    0.38541667  0.50000000  0.00000000 1
    0.39062500  0.50000000  0.00000000 1
    0.39583333  0.50000000  0.00000000 1
    0.40104167  0.50000000  0.00000000 1
    0.40625000  0.50000000  0.00000000 1
    0.41145833  0.50000000  0.00000000 1
    0.41666667  0.50000000  0.00000000 1
    0.42187500  0.50000000  0.00000000 1
    0.42708333  0.50000000  0.00000000 1
    0.43229167  0.50000000  0.00000000 1
    0.43750000  0.50000000  0.00000000 1
    0.44270833  0.50000000  0.00000000 1
    0.44791667  0.50000000  0.00000000 1
    0.45312500  0.50000000  0.00000000 1
    0.45833333  0.50000000  0.00000000 1
    0.46354167  0.50000000  0.00000000 1
    0.46875000  0.50000000  0.00000000 1
    0.47395833  0.50000000  0.00000000 1
    0.47916667  0.50000000  0.00000000 1
    0.48437500  0.50000000  0.00000000 1
    0.48958333  0.50000000  0.00000000 1
    0.49479167  0.50000000  0.00000000 1
    0.50000000  0.50000000  0.00000000 1
    0.49632353  0.49632353  0.00000000 1
    0.49264706  0.49264706  0.00000000 1
    0.48897059  0.48897059  0.00000000 1
    0.48529412  0.48529412  0.00000000 1
    0.48161765  0.48161765  0.00000000 1
    0.47794118  0.47794118  0.00000000 1
    0.47426471  0.47426471  0.00000000 1
    0.47058824  0.47058824  0.00000000 1
    0.46691176  0.46691176  0.00000000 1
    0.46323529  0.46323529  0.00000000 1
    0.45955882  0.45955882  0.00000000 1
    0.45588235  0.45588235  0.00000000 1
    0.45220588  0.45220588  0.00000000 1
    0.44852941  0.44852941  0.00000000 1
    0.44485294  0.44485294  0.00000000 1
    0.44117647  0.44117647  0.00000000 1
    0.43750000  0.43750000  0.00000000 1
    0.43382353  0.43382353  0.00000000 1
    0.43014706  0.43014706  0.00000000 1
    0.42647059  0.42647059  0.00000000 1
    0.42279412  0.42279412  0.00000000 1
    0.41911765  0.41911765  0.00000000 1
    0.41544118  0.41544118  0.00000000 1
    0.41176471  0.41176471  0.00000000 1
    0.40808824  0.40808824  0.00000000 1
    0.40441176  0.40441176  0.00000000 1
    0.40073529  0.40073529  0.00000000 1
    0.39705882  0.39705882  0.00000000 1
    0.39338235  0.39338235  0.00000000 1
    0.38970588  0.38970588  0.00000000 1
    0.38602941  0.38602941  0.00000000 1
    0.38235294  0.38235294  0.00000000 1
    0.37867647  0.37867647  0.00000000 1
    0.37500000  0.37500000  0.00000000 1
    0.37132353  0.37132353  0.00000000 1
    0.36764706  0.36764706  0.00000000 1
    0.36397059  0.36397059  0.00000000 1
    0.36029412  0.36029412  0.00000000 1
    0.35661765  0.35661765  0.00000000 1
    0.35294118  0.35294118  0.00000000 1
    0.34926471  0.34926471  0.00000000 1
    0.34558824  0.34558824  0.00000000 1
    0.34191176  0.34191176  0.00000000 1
    0.33823529  0.33823529  0.00000000 1
    0.33455882  0.33455882  0.00000000 1
    0.33088235  0.33088235  0.00000000 1
    0.32720588  0.32720588  0.00000000 1
    0.32352941  0.32352941  0.00000000 1
    0.31985294  0.31985294  0.00000000 1
    0.31617647  0.31617647  0.00000000 1
    0.31250000  0.31250000  0.00000000 1
    0.30882353  0.30882353  0.00000000 1
    0.30514706  0.30514706  0.00000000 1
    0.30147059  0.30147059  0.00000000 1
    0.29779412  0.29779412  0.00000000 1
    0.29411765  0.29411765  0.00000000 1
    0.29044118  0.29044118  0.00000000 1
    0.28676471  0.28676471  0.00000000 1
    0.28308824  0.28308824  0.00000000 1
    0.27941176  0.27941176  0.00000000 1
    0.27573529  0.27573529  0.00000000 1
    0.27205882  0.27205882  0.00000000 1
    0.26838235  0.26838235  0.00000000 1
    0.26470588  0.26470588  0.00000000 1
    0.26102941  0.26102941  0.00000000 1
    0.25735294  0.25735294  0.00000000 1
    0.25367647  0.25367647  0.00000000 1
    0.25000000  0.25000000  0.00000000 1
    0.24632353  0.24632353  0.00000000 1
    0.24264706  0.24264706  0.00000000 1
    0.23897059  0.23897059  0.00000000 1
    0.23529412  0.23529412  0.00000000 1
    0.23161765  0.23161765  0.00000000 1
    0.22794118  0.22794118  0.00000000 1
    0.22426471  0.22426471  0.00000000 1
    0.22058824  0.22058824  0.00000000 1
    0.21691176  0.21691176  0.00000000 1
    0.21323529  0.21323529  0.00000000 1
    0.20955882  0.20955882  0.00000000 1
    0.20588235  0.20588235  0.00000000 1
    0.20220588  0.20220588  0.00000000 1
    0.19852941  0.19852941  0.00000000 1
    0.19485294  0.19485294  0.00000000 1
    0.19117647  0.19117647  0.00000000 1
    0.18750000  0.18750000  0.00000000 1
    0.18382353  0.18382353  0.00000000 1
    0.18014706  0.18014706  0.00000000 1
    0.17647059  0.17647059  0.00000000 1
    0.17279412  0.17279412  0.00000000 1
    0.16911765  0.16911765  0.00000000 1
    0.16544118  0.16544118  0.00000000 1
    0.16176471  0.16176471  0.00000000 1
    0.15808824  0.15808824  0.00000000 1
    0.15441176  0.15441176  0.00000000 1
    0.15073529  0.15073529  0.00000000 1
    0.14705882  0.14705882  0.00000000 1
    0.14338235  0.14338235  0.00000000 1
    0.13970588  0.13970588  0.00000000 1
    0.13602941  0.13602941  0.00000000 1
    0.13235294  0.13235294  0.00000000 1
    0.12867647  0.12867647  0.00000000 1
    0.12500000  0.12500000  0.00000000 1
    0.12132353  0.12132353  0.00000000 1
    0.11764706  0.11764706  0.00000000 1
    0.11397059  0.11397059  0.00000000 1
    0.11029412  0.11029412  0.00000000 1
    0.10661765  0.10661765  0.00000000 1
    0.10294118  0.10294118  0.00000000 1
    0.09926471  0.09926471  0.00000000 1
    0.09558824  0.09558824  0.00000000 1
    0.09191176  0.09191176  0.00000000 1
    0.08823529  0.08823529  0.00000000 1
    0.08455882  0.08455882  0.00000000 1
    0.08088235  0.08088235  0.00000000 1
    0.07720588  0.07720588  0.00000000 1
    0.07352941  0.07352941  0.00000000 1
    0.06985294  0.06985294  0.00000000 1
    0.06617647  0.06617647  0.00000000 1
    0.06250000  0.06250000  0.00000000 1
    0.05882353  0.05882353  0.00000000 1
    0.05514706  0.05514706  0.00000000 1
    0.05147059  0.05147059  0.00000000 1
    0.04779412  0.04779412  0.00000000 1
    0.04411765  0.04411765  0.00000000 1
    0.04044118  0.04044118  0.00000000 1
    0.03676471  0.03676471  0.00000000 1
    0.03308824  0.03308824  0.00000000 1
    0.02941176  0.02941176  0.00000000 1
    0.02573529  0.02573529  0.00000000 1
    0.02205882  0.02205882  0.00000000 1
    0.01838235  0.01838235  0.00000000 1
    0.01470588  0.01470588  0.00000000 1
    0.01102941  0.01102941  0.00000000 1
    0.00735294  0.00735294  0.00000000 1
    0.00367647  0.00367647  0.00000000 1
    0.00000000  0.00000000  0.00000000 1
    0.00299401  0.00299401  0.00299401 1
    0.00598802  0.00598802  0.00598802 1
    0.00898204  0.00898204  0.00898204 1
    0.01197605  0.01197605  0.01197605 1
    0.01497006  0.01497006  0.01497006 1
    0.01796407  0.01796407  0.01796407 1
    0.02095808  0.02095808  0.02095808 1
    0.02395210  0.02395210  0.02395210 1
    0.02694611  0.02694611  0.02694611 1
    0.02994012  0.02994012  0.02994012 1
    0.03293413  0.03293413  0.03293413 1
    0.03592814  0.03592814  0.03592814 1
    0.03892216  0.03892216  0.03892216 1
    0.04191617  0.04191617  0.04191617 1
    0.04491018  0.04491018  0.04491018 1
    0.04790419  0.04790419  0.04790419 1
    0.05089820  0.05089820  0.05089820 1
    0.05389222  0.05389222  0.05389222 1
    0.05688623  0.05688623  0.05688623 1
    0.05988024  0.05988024  0.05988024 1
    0.06287425  0.06287425  0.06287425 1
    0.06586826  0.06586826  0.06586826 1
    0.06886228  0.06886228  0.06886228 1
    0.07185629  0.07185629  0.07185629 1
    0.07485030  0.07485030  0.07485030 1
    0.07784431  0.07784431  0.07784431 1
    0.08083832  0.08083832  0.08083832 1
    0.08383234  0.08383234  0.08383234 1
    0.08682635  0.08682635  0.08682635 1
    0.08982036  0.08982036  0.08982036 1
    0.09281437  0.09281437  0.09281437 1
    0.09580838  0.09580838  0.09580838 1
    0.09880240  0.09880240  0.09880240 1
    0.10179641  0.10179641  0.10179641 1
    0.10479042  0.10479042  0.10479042 1
    0.10778443  0.10778443  0.10778443 1
    0.11077844  0.11077844  0.11077844 1
    0.11377246  0.11377246  0.11377246 1
    0.11676647  0.11676647  0.11676647 1
    0.11976048  0.11976048  0.11976048 1
    0.12275449  0.12275449  0.12275449 1
    0.12574850  0.12574850  0.12574850 1
    0.12874251  0.12874251  0.12874251 1
    0.13173653  0.13173653  0.13173653 1
    0.13473054  0.13473054  0.13473054 1
    0.13772455  0.13772455  0.13772455 1
    0.14071856  0.14071856  0.14071856 1
    0.14371257  0.14371257  0.14371257 1
    0.14670659  0.14670659  0.14670659 1
    0.14970060  0.14970060  0.14970060 1
    0.15269461  0.15269461  0.15269461 1
    0.15568862  0.15568862  0.15568862 1
    0.15868263  0.15868263  0.15868263 1
    0.16167665  0.16167665  0.16167665 1
    0.16467066  0.16467066  0.16467066 1
    0.16766467  0.16766467  0.16766467 1
    0.17065868  0.17065868  0.17065868 1
    0.17365269  0.17365269  0.17365269 1
    0.17664671  0.17664671  0.17664671 1
    0.17964072  0.17964072  0.17964072 1
    0.18263473  0.18263473  0.18263473 1
    0.18562874  0.18562874  0.18562874 1
    0.18862275  0.18862275  0.18862275 1
    0.19161677  0.19161677  0.19161677 1
    0.19461078  0.19461078  0.19461078 1
    0.19760479  0.19760479  0.19760479 1
    0.20059880  0.20059880  0.20059880 1
    0.20359281  0.20359281  0.20359281 1
    0.20658683  0.20658683  0.20658683 1
    0.20958084  0.20958084  0.20958084 1
    0.21257485  0.21257485  0.21257485 1
    0.21556886  0.21556886  0.21556886 1
    0.21856287  0.21856287  0.21856287 1
    0.22155689  0.22155689  0.22155689 1
    0.22455090  0.22455090  0.22455090 1
    0.22754491  0.22754491  0.22754491 1
    0.23053892  0.23053892  0.23053892 1
    0.23353293  0.23353293  0.23353293 1
    0.23652695  0.23652695  0.23652695 1
    0.23952096  0.23952096  0.23952096 1
    0.24251497  0.24251497  0.24251497 1
    0.24550898  0.24550898  0.24550898 1
    0.24850299  0.24850299  0.24850299 1
    0.25149701  0.25149701  0.25149701 1
    0.25449102  0.25449102  0.25449102 1
    0.25748503  0.25748503  0.25748503 1
    0.26047904  0.26047904  0.26047904 1
    0.26347305  0.26347305  0.26347305 1
    0.26646707  0.26646707  0.26646707 1
    0.26946108  0.26946108  0.26946108 1
    0.27245509  0.27245509  0.27245509 1
    0.27544910  0.27544910  0.27544910 1
    0.27844311  0.27844311  0.27844311 1
    0.28143713  0.28143713  0.28143713 1
    0.28443114  0.28443114  0.28443114 1
    0.28742515  0.28742515  0.28742515 1
    0.29041916  0.29041916  0.29041916 1
    0.29341317  0.29341317  0.29341317 1
    0.29640719  0.29640719  0.29640719 1
    0.29940120  0.29940120  0.29940120 1
    0.30239521  0.30239521  0.30239521 1
    0.30538922  0.30538922  0.30538922 1
    0.30838323  0.30838323  0.30838323 1
    0.31137725  0.31137725  0.31137725 1
    0.31437126  0.31437126  0.31437126 1
    0.31736527  0.31736527  0.31736527 1
    0.32035928  0.32035928  0.32035928 1
    0.32335329  0.32335329  0.32335329 1
    0.32634731  0.32634731  0.32634731 1
    0.32934132  0.32934132  0.32934132 1
    0.33233533  0.33233533  0.33233533 1
    0.33532934  0.33532934  0.33532934 1
    0.33832335  0.33832335  0.33832335 1
    0.34131737  0.34131737  0.34131737 1
    0.34431138  0.34431138  0.34431138 1
    0.34730539  0.34730539  0.34730539 1
    0.35029940  0.35029940  0.35029940 1
    0.35329341  0.35329341  0.35329341 1
    0.35628743  0.35628743  0.35628743 1
    0.35928144  0.35928144  0.35928144 1
    0.36227545  0.36227545  0.36227545 1
    0.36526946  0.36526946  0.36526946 1
    0.36826347  0.36826347  0.36826347 1
    0.37125749  0.37125749  0.37125749 1
    0.37425150  0.37425150  0.37425150 1
    0.37724551  0.37724551  0.37724551 1
    0.38023952  0.38023952  0.38023952 1
    0.38323353  0.38323353  0.38323353 1
    0.38622754  0.38622754  0.38622754 1
    0.38922156  0.38922156  0.38922156 1
    0.39221557  0.39221557  0.39221557 1
    0.39520958  0.39520958  0.39520958 1
    0.39820359  0.39820359  0.39820359 1
    0.40119760  0.40119760  0.40119760 1
    0.40419162  0.40419162  0.40419162 1
    0.40718563  0.40718563  0.40718563 1
    0.41017964  0.41017964  0.41017964 1
    0.41317365  0.41317365  0.41317365 1
    0.41616766  0.41616766  0.41616766 1
    0.41916168  0.41916168  0.41916168 1
    0.42215569  0.42215569  0.42215569 1
    0.42514970  0.42514970  0.42514970 1
    0.42814371  0.42814371  0.42814371 1
    0.43113772  0.43113772  0.43113772 1
    0.43413174  0.43413174  0.43413174 1
    0.43712575  0.43712575  0.43712575 1
    0.44011976  0.44011976  0.44011976 1
    0.44311377  0.44311377  0.44311377 1
    0.44610778  0.44610778  0.44610778 1
    0.44910180  0.44910180  0.44910180 1
    0.45209581  0.45209581  0.45209581 1
    0.45508982  0.45508982  0.45508982 1
    0.45808383  0.45808383  0.45808383 1
    0.46107784  0.46107784  0.46107784 1
    0.46407186  0.46407186  0.46407186 1
    0.46706587  0.46706587  0.46706587 1
    0.47005988  0.47005988  0.47005988 1
    0.47305389  0.47305389  0.47305389 1
    0.47604790  0.47604790  0.47604790 1
    0.47904192  0.47904192  0.47904192 1
    0.48203593  0.48203593  0.48203593 1
    0.48502994  0.48502994  0.48502994 1
    0.48802395  0.48802395  0.48802395 1
    0.49101796  0.49101796  0.49101796 1
    0.49401198  0.49401198  0.49401198 1
    0.49700599  0.49700599  0.49700599 1
    0.50000000  0.50000000  0.50000000 1
    0.49632353  0.50000000  0.49632353 1
    0.49264706  0.50000000  0.49264706 1
    0.48897059  0.50000000  0.48897059 1
    0.48529412  0.50000000  0.48529412 1
    0.48161765  0.50000000  0.48161765 1
    0.47794118  0.50000000  0.47794118 1
    0.47426471  0.50000000  0.47426471 1
    0.47058824  0.50000000  0.47058824 1
    0.46691176  0.50000000  0.46691176 1
    0.46323529  0.50000000  0.46323529 1
    0.45955882  0.50000000  0.45955882 1
    0.45588235  0.50000000  0.45588235 1
    0.45220588  0.50000000  0.45220588 1
    0.44852941  0.50000000  0.44852941 1
    0.44485294  0.50000000  0.44485294 1
    0.44117647  0.50000000  0.44117647 1
    0.43750000  0.50000000  0.43750000 1
    0.43382353  0.50000000  0.43382353 1
    0.43014706  0.50000000  0.43014706 1
    0.42647059  0.50000000  0.42647059 1
    0.42279412  0.50000000  0.42279412 1
    0.41911765  0.50000000  0.41911765 1
    0.41544118  0.50000000  0.41544118 1
    0.41176471  0.50000000  0.41176471 1
    0.40808824  0.50000000  0.40808824 1
    0.40441176  0.50000000  0.40441176 1
    0.40073529  0.50000000  0.40073529 1
    0.39705882  0.50000000  0.39705882 1
    0.39338235  0.50000000  0.39338235 1
    0.38970588  0.50000000  0.38970588 1
    0.38602941  0.50000000  0.38602941 1
    0.38235294  0.50000000  0.38235294 1
    0.37867647  0.50000000  0.37867647 1
    0.37500000  0.50000000  0.37500000 1
    0.37132353  0.50000000  0.37132353 1
    0.36764706  0.50000000  0.36764706 1
    0.36397059  0.50000000  0.36397059 1
    0.36029412  0.50000000  0.36029412 1
    0.35661765  0.50000000  0.35661765 1
    0.35294118  0.50000000  0.35294118 1
    0.34926471  0.50000000  0.34926471 1
    0.34558824  0.50000000  0.34558824 1
    0.34191176  0.50000000  0.34191176 1
    0.33823529  0.50000000  0.33823529 1
    0.33455882  0.50000000  0.33455882 1
    0.33088235  0.50000000  0.33088235 1
    0.32720588  0.50000000  0.32720588 1
    0.32352941  0.50000000  0.32352941 1
    0.31985294  0.50000000  0.31985294 1
    0.31617647  0.50000000  0.31617647 1
    0.31250000  0.50000000  0.31250000 1
    0.30882353  0.50000000  0.30882353 1
    0.30514706  0.50000000  0.30514706 1
    0.30147059  0.50000000  0.30147059 1
    0.29779412  0.50000000  0.29779412 1
    0.29411765  0.50000000  0.29411765 1
    0.29044118  0.50000000  0.29044118 1
    0.28676471  0.50000000  0.28676471 1
    0.28308824  0.50000000  0.28308824 1
    0.27941176  0.50000000  0.27941176 1
    0.27573529  0.50000000  0.27573529 1
    0.27205882  0.50000000  0.27205882 1
    0.26838235  0.50000000  0.26838235 1
    0.26470588  0.50000000  0.26470588 1
    0.26102941  0.50000000  0.26102941 1
    0.25735294  0.50000000  0.25735294 1
    0.25367647  0.50000000  0.25367647 1
    0.25000000  0.50000000  0.25000000 1
    0.24632353  0.50000000  0.24632353 1
    0.24264706  0.50000000  0.24264706 1
    0.23897059  0.50000000  0.23897059 1
    0.23529412  0.50000000  0.23529412 1
    0.23161765  0.50000000  0.23161765 1
    0.22794118  0.50000000  0.22794118 1
    0.22426471  0.50000000  0.22426471 1
    0.22058824  0.50000000  0.22058824 1
    0.21691176  0.50000000  0.21691176 1
    0.21323529  0.50000000  0.21323529 1
    0.20955882  0.50000000  0.20955882 1
    0.20588235  0.50000000  0.20588235 1
    0.20220588  0.50000000  0.20220588 1
    0.19852941  0.50000000  0.19852941 1
    0.19485294  0.50000000  0.19485294 1
    0.19117647  0.50000000  0.19117647 1
    0.18750000  0.50000000  0.18750000 1
    0.18382353  0.50000000  0.18382353 1
    0.18014706  0.50000000  0.18014706 1
    0.17647059  0.50000000  0.17647059 1
    0.17279412  0.50000000  0.17279412 1
    0.16911765  0.50000000  0.16911765 1
    0.16544118  0.50000000  0.16544118 1
    0.16176471  0.50000000  0.16176471 1
    0.15808824  0.50000000  0.15808824 1
    0.15441176  0.50000000  0.15441176 1
    0.15073529  0.50000000  0.15073529 1
    0.14705882  0.50000000  0.14705882 1
    0.14338235  0.50000000  0.14338235 1
    0.13970588  0.50000000  0.13970588 1
    0.13602941  0.50000000  0.13602941 1
    0.13235294  0.50000000  0.13235294 1
    0.12867647  0.50000000  0.12867647 1
    0.12500000  0.50000000  0.12500000 1
    0.12132353  0.50000000  0.12132353 1
    0.11764706  0.50000000  0.11764706 1
    0.11397059  0.50000000  0.11397059 1
    0.11029412  0.50000000  0.11029412 1
    0.10661765  0.50000000  0.10661765 1
    0.10294118  0.50000000  0.10294118 1
    0.09926471  0.50000000  0.09926471 1
    0.09558824  0.50000000  0.09558824 1
    0.09191176  0.50000000  0.09191176 1
    0.08823529  0.50000000  0.08823529 1
    0.08455882  0.50000000  0.08455882 1
    0.08088235  0.50000000  0.08088235 1
    0.07720588  0.50000000  0.07720588 1
    0.07352941  0.50000000  0.07352941 1
    0.06985294  0.50000000  0.06985294 1
    0.06617647  0.50000000  0.06617647 1
    0.06250000  0.50000000  0.06250000 1
    0.05882353  0.50000000  0.05882353 1
    0.05514706  0.50000000  0.05514706 1
    0.05147059  0.50000000  0.05147059 1
    0.04779412  0.50000000  0.04779412 1
    0.04411765  0.50000000  0.04411765 1
    0.04044118  0.50000000  0.04044118 1
    0.03676471  0.50000000  0.03676471 1
    0.03308824  0.50000000  0.03308824 1
    0.02941176  0.50000000  0.02941176 1
    0.02573529  0.50000000  0.02573529 1
    0.02205882  0.50000000  0.02205882 1
    0.01838235  0.50000000  0.01838235 1
    0.01470588  0.50000000  0.01470588 1
    0.01102941  0.50000000  0.01102941 1
    0.00735294  0.50000000  0.00735294 1
    0.00367647  0.50000000  0.00367647 1
    0.00000000  0.50000000  0.00000000 1
