&CONTROL
  calculation = 'scf',
  prefix = 'hea',
  pseudo_dir = '../../pseudo/',
  tprnfor = .TRUE.,
  tstress = .TRUE.,
  verbosity = 'low',
/
&SYSTEM
  degauss = 0.015,
  ecutrho = 340.0,
  ecutwfc = 85.0,
  ibrav = 0,
  nosym = .FALSE.,
  occupations = 'smearing',
  smearing = 'gauss',
  nat = 20,
  ntyp = 5,
/
&ELECTRONS
  conv_thr = 1d-10,
  electron_maxstep = 80,
  mixing_beta = 0.5,
  mixing_mode = 'local-TF',
/
&IONS
/
&CELL
/
ATOMIC_SPECIES
  Hf  178.4900 Hf.upf
  Nb  92.9064 Nb.upf
  Ta  180.9479 Ta.upf
  Ti  47.8670 Ti.upf
  Zr  91.2240 Zr.upf
ATOMIC_POSITIONS crystal
  Hf 0.601752964400 0.601752684000 0.899596532300
  Hf 0.396482421300 0.396482132100 0.844317873800
  Zr 0.599220468800 0.599220686700 0.148333242300
  Zr 0.806513872700 0.806514172400 0.460259280000
  Ta 0.797554511500 0.797554714000 0.196412178400
  Ta 0.397859697300 0.397859778600 0.102459622300
  Ta 0.600165423800 0.600165671300 0.401456523200
  Ta 0.205134167000 0.205134522000 0.302515018400
  Ta 0.000871206100 0.000871447100 0.251200384100
  Ta -0.002439540400 -0.002439844600 0.751110748300
  Ta 0.803152941500 0.803152780200 0.949396353500
  Ti 0.401302785100 0.401302707900 0.596310909300
  Ti 0.199722449200 0.199722389400 0.047329979600
  Nb 0.796135737100 0.796135423800 0.696470205000
  Nb 0.004808593600 0.004808516200 0.003218343300
  Nb -0.001183220300 -0.001183097200 0.500339293600
  Nb 0.196360261700 0.196359949900 0.800780018300
  Nb 0.399031106100 0.399031383200 0.348221325800
  Nb 0.200009656600 0.200009658300 0.551909465600
  Nb 0.597544497000 0.597544324900 0.648362703100
K_POINTS automatic
  9 9 4 0 0 0
CELL_PARAMETERS angstrom
      6.4934090810      0.0161827210     -3.4861372060
      5.0921756550      4.0291927500     -3.4861334730
     -0.0197047020     -0.0068907450     10.4015349650