&CONTROL
  calculation = 'bands',
  prefix = 'hea',
  pseudo_dir = '../../pseudo/',
  verbosity = 'low',
/
&SYSTEM
  degauss = 0.15,
  ecutrho = 340.0,
  ecutwfc = 85.0,
  ibrav = 0,
  nbnd = 200,
  nosym = .FALSE.,
  occupations = 'smearing',
  smearing = 'gauss',
  nat = 20,
  ntyp = 5,
/
&ELECTRONS
  conv_thr = 1d-10,
  electron_maxstep = 80,
  mixing_beta = 0.7,
  mixing_mode = 'local-TF',
/
&IONS
/
&CELL
/
ATOMIC_SPECIES
  Hf  178.4900 Hf.upf
  Nb  92.9064 Nb.upf
  Ta  180.9479 Ta.upf
  Ti  47.8670 Ti.upf
  Zr  91.2240 Zr.upf
ATOMIC_POSITIONS crystal
  Hf 0.601752964400 0.601752684000 0.899596532300
  Hf 0.396482421300 0.396482132100 0.844317873800
  Zr 0.599220468800 0.599220686700 0.148333242300
  Zr 0.806513872700 0.806514172400 0.460259280000
  Ta 0.797554511500 0.797554714000 0.196412178400
  Ta 0.397859697300 0.397859778600 0.102459622300
  Ta 0.600165423800 0.600165671300 0.401456523200
  Ta 0.205134167000 0.205134522000 0.302515018400
  Ta 0.000871206100 0.000871447100 0.251200384100
  Ta -0.002439540400 -0.002439844600 0.751110748300
  Ta 0.803152941500 0.803152780200 0.949396353500
  Ti 0.401302785100 0.401302707900 0.596310909300
  Ti 0.199722449200 0.199722389400 0.047329979600
  Nb 0.796135737100 0.796135423800 0.696470205000
  Nb 0.004808593600 0.004808516200 0.003218343300
  Nb -0.001183220300 -0.001183097200 0.500339293600
  Nb 0.196360261700 0.196359949900 0.800780018300
  Nb 0.399031106100 0.399031383200 0.348221325800
  Nb 0.200009656600 0.200009658300 0.551909465600
  Nb 0.597544497000 0.597544324900 0.648362703100
CELL_PARAMETERS angstrom
      6.4934090810      0.0161827210     -3.4861372060
      5.0921756550      4.0291927500     -3.4861334730
     -0.0197047020     -0.0068907450     10.4015349650
K_POINTS crystal
477
    0.00000000  0.00000000  0.00000000 1
    0.00000000  0.00649351  0.00000000 1
    0.00000000  0.01298701  0.00000000 1
    0.00000000  0.01948052  0.00000000 1
    0.00000000  0.02597403  0.00000000 1
    0.00000000  0.03246753  0.00000000 1
    0.00000000  0.03896104  0.00000000 1
    0.00000000  0.04545455  0.00000000 1
    0.00000000  0.05194805  0.00000000 1
    0.00000000  0.05844156  0.00000000 1
    0.00000000  0.06493506  0.00000000 1
    0.00000000  0.07142857  0.00000000 1
    0.00000000  0.07792208  0.00000000 1
    0.00000000  0.08441558  0.00000000 1
    0.00000000  0.09090909  0.00000000 1
    0.00000000  0.09740260  0.00000000 1
    0.00000000  0.10389610  0.00000000 1
    0.00000000  0.11038961  0.00000000 1
    0.00000000  0.11688312  0.00000000 1
    0.00000000  0.12337662  0.00000000 1
    0.00000000  0.12987013  0.00000000 1
    0.00000000  0.13636364  0.00000000 1
    0.00000000  0.14285714  0.00000000 1
    0.00000000  0.14935065  0.00000000 1
    0.00000000  0.15584416  0.00000000 1
    0.00000000  0.16233766  0.00000000 1
    0.00000000  0.16883117  0.00000000 1
    0.00000000  0.17532468  0.00000000 1
    0.00000000  0.18181818  0.00000000 1
    0.00000000  0.18831169  0.00000000 1
    0.00000000  0.19480519  0.00000000 1
    0.00000000  0.20129870  0.00000000 1
    0.00000000  0.20779221  0.00000000 1
    0.00000000  0.21428571  0.00000000 1
    0.00000000  0.22077922  0.00000000 1
    0.00000000  0.22727273  0.00000000 1
    0.00000000  0.23376623  0.00000000 1
    0.00000000  0.24025974  0.00000000 1
    0.00000000  0.24675325  0.00000000 1
    0.00000000  0.25324675  0.00000000 1
    0.00000000  0.25974026  0.00000000 1
    0.00000000  0.26623377  0.00000000 1
    0.00000000  0.27272727  0.00000000 1
    0.00000000  0.27922078  0.00000000 1
    0.00000000  0.28571429  0.00000000 1
    0.00000000  0.29220779  0.00000000 1
    0.00000000  0.29870130  0.00000000 1
    0.00000000  0.30519481  0.00000000 1
    0.00000000  0.31168831  0.00000000 1
    0.00000000  0.31818182  0.00000000 1
    0.00000000  0.32467532  0.00000000 1
    0.00000000  0.33116883  0.00000000 1
    0.00000000  0.33766234  0.00000000 1
    0.00000000  0.34415584  0.00000000 1
    0.00000000  0.35064935  0.00000000 1
    0.00000000  0.35714286  0.00000000 1
    0.00000000  0.36363636  0.00000000 1
    0.00000000  0.37012987  0.00000000 1
    0.00000000  0.37662338  0.00000000 1
    0.00000000  0.38311688  0.00000000 1
    0.00000000  0.38961039  0.00000000 1
    0.00000000  0.39610390  0.00000000 1
    0.00000000  0.40259740  0.00000000 1
    0.00000000  0.40909091  0.00000000 1
    0.00000000  0.41558442  0.00000000 1
    0.00000000  0.42207792  0.00000000 1
    0.00000000  0.42857143  0.00000000 1
    0.00000000  0.43506494  0.00000000 1
    0.00000000  0.44155844  0.00000000 1
    0.00000000  0.44805195  0.00000000 1
    0.00000000  0.45454545  0.00000000 1
    0.00000000  0.46103896  0.00000000 1
    0.00000000  0.46753247  0.00000000 1
    0.00000000  0.47402597  0.00000000 1
    0.00000000  0.48051948  0.00000000 1
    0.00000000  0.48701299  0.00000000 1
    0.00000000  0.49350649  0.00000000 1
    0.00000000  0.50000000  0.00000000 1
    -0.00383562  0.50301370  0.00000000 1
    -0.00767123  0.50602740  0.00000000 1
    -0.01150685  0.50904110  0.00000000 1
    -0.01534247  0.51205479  0.00000000 1
    -0.01917808  0.51506849  0.00000000 1
    -0.02301370  0.51808219  0.00000000 1
    -0.02684932  0.52109589  0.00000000 1
    -0.03068493  0.52410959  0.00000000 1
    -0.03452055  0.52712329  0.00000000 1
    -0.03835616  0.53013699  0.00000000 1
    -0.04219178  0.53315068  0.00000000 1
    -0.04602740  0.53616438  0.00000000 1
    -0.04986301  0.53917808  0.00000000 1
    -0.05369863  0.54219178  0.00000000 1
    -0.05753425  0.54520548  0.00000000 1
    -0.06136986  0.54821918  0.00000000 1
    -0.06520548  0.55123288  0.00000000 1
    -0.06904110  0.55424658  0.00000000 1
    -0.07287671  0.55726027  0.00000000 1
    -0.07671233  0.56027397  0.00000000 1
    -0.08054795  0.56328767  0.00000000 1
    -0.08438356  0.56630137  0.00000000 1
    -0.08821918  0.56931507  0.00000000 1
    -0.09205479  0.57232877  0.00000000 1
    -0.09589041  0.57534247  0.00000000 1
    -0.09972603  0.57835616  0.00000000 1
    -0.10356164  0.58136986  0.00000000 1
    -0.10739726  0.58438356  0.00000000 1
    -0.11123288  0.58739726  0.00000000 1
    -0.11506849  0.59041096  0.00000000 1
    -0.11890411  0.59342466  0.00000000 1
    -0.12273973  0.59643836  0.00000000 1
    -0.12657534  0.59945205  0.00000000 1
    -0.13041096  0.60246575  0.00000000 1
    -0.13424658  0.60547945  0.00000000 1
    -0.13808219  0.60849315  0.00000000 1
    -0.14191781  0.61150685  0.00000000 1
    -0.14575342  0.61452055  0.00000000 1
    -0.14958904  0.61753425  0.00000000 1
    -0.15342466  0.62054795  0.00000000 1
    -0.15726027  0.62356164  0.00000000 1
    -0.16109589  0.62657534  0.00000000 1
    -0.16493151  0.62958904  0.00000000 1
    -0.16876712  0.63260274  0.00000000 1
    -0.17260274  0.63561644  0.00000000 1
    -0.17643836  0.63863014  0.00000000 1
    -0.18027397  0.64164384  0.00000000 1
    -0.18410959  0.64465753  0.00000000 1
    -0.18794521  0.64767123  0.00000000 1
    -0.19178082  0.65068493  0.00000000 1
    -0.19561644  0.65369863  0.00000000 1
    -0.19945205  0.65671233  0.00000000 1
    -0.20328767  0.65972603  0.00000000 1
    -0.20712329  0.66273973  0.00000000 1
    -0.21095890  0.66575342  0.00000000 1
    -0.21479452  0.66876712  0.00000000 1
    -0.21863014  0.67178082  0.00000000 1
    -0.22246575  0.67479452  0.00000000 1
    -0.22630137  0.67780822  0.00000000 1
    -0.23013699  0.68082192  0.00000000 1
    -0.23397260  0.68383562  0.00000000 1
    -0.23780822  0.68684932  0.00000000 1
    -0.24164384  0.68986301  0.00000000 1
    -0.24547945  0.69287671  0.00000000 1
    -0.24931507  0.69589041  0.00000000 1
    -0.25315068  0.69890411  0.00000000 1
    -0.25698630  0.70191781  0.00000000 1
    -0.26082192  0.70493151  0.00000000 1
    -0.26465753  0.70794521  0.00000000 1
    -0.26849315  0.71095890  0.00000000 1
    -0.27232877  0.71397260  0.00000000 1
    -0.27616438  0.71698630  0.00000000 1
    -0.28000000  0.72000000  0.00000000 1
    -0.29000000  0.71000000  0.00000000 1
    -0.30000000  0.70000000  0.00000000 1
    -0.31000000  0.69000000  0.00000000 1
    -0.32000000  0.68000000  0.00000000 1
    -0.33000000  0.67000000  0.00000000 1
    -0.34000000  0.66000000  0.00000000 1
    -0.35000000  0.65000000  0.00000000 1
    -0.36000000  0.64000000  0.00000000 1
    -0.37000000  0.63000000  0.00000000 1
    -0.38000000  0.62000000  0.00000000 1
    -0.39000000  0.61000000  0.00000000 1
    -0.40000000  0.60000000  0.00000000 1
    -0.41000000  0.59000000  0.00000000 1
    -0.42000000  0.58000000  0.00000000 1
    -0.43000000  0.57000000  0.00000000 1
    -0.44000000  0.56000000  0.00000000 1
    -0.45000000  0.55000000  0.00000000 1
    -0.46000000  0.54000000  0.00000000 1
    -0.47000000  0.53000000  0.00000000 1
    -0.48000000  0.52000000  0.00000000 1
    -0.49000000  0.51000000  0.00000000 1
    -0.50000000  0.50000000  0.00000000 1
    -0.49000000  0.49000000  0.00000000 1
    -0.48000000  0.48000000  0.00000000 1
    -0.47000000  0.47000000  0.00000000 1
    -0.46000000  0.46000000  0.00000000 1
    -0.45000000  0.45000000  0.00000000 1
    -0.44000000  0.44000000  0.00000000 1
    -0.43000000  0.43000000  0.00000000 1
    -0.42000000  0.42000000  0.00000000 1
    -0.41000000  0.41000000  0.00000000 1
    -0.40000000  0.40000000  0.00000000 1
    -0.39000000  0.39000000  0.00000000 1
    -0.38000000  0.38000000  0.00000000 1
    -0.37000000  0.37000000  0.00000000 1
    -0.36000000  0.36000000  0.00000000 1
    -0.35000000  0.35000000  0.00000000 1
    -0.34000000  0.34000000  0.00000000 1
    -0.33000000  0.33000000  0.00000000 1
    -0.32000000  0.32000000  0.00000000 1
    -0.31000000  0.31000000  0.00000000 1
    -0.30000000  0.30000000  0.00000000 1
    -0.29000000  0.29000000  0.00000000 1
    -0.28000000  0.28000000  0.00000000 1
    -0.27000000  0.27000000  0.00000000 1
    -0.26000000  0.26000000  0.00000000 1
    -0.25000000  0.25000000  0.00000000 1
    -0.24000000  0.24000000  0.00000000 1
    -0.23000000  0.23000000  0.00000000 1
    -0.22000000  0.22000000  0.00000000 1
    -0.21000000  0.21000000  0.00000000 1
    -0.20000000  0.20000000  0.00000000 1
    -0.19000000  0.19000000  0.00000000 1
    -0.18000000  0.18000000  0.00000000 1
    -0.17000000  0.17000000  0.00000000 1
    -0.16000000  0.16000000  0.00000000 1
    -0.15000000  0.15000000  0.00000000 1
    -0.14000000  0.14000000  0.00000000 1
    -0.13000000  0.13000000  0.00000000 1
    -0.12000000  0.12000000  0.00000000 1
    -0.11000000  0.11000000  0.00000000 1
    -0.10000000  0.10000000  0.00000000 1
    -0.09000000  0.09000000  0.00000000 1
    -0.08000000  0.08000000  0.00000000 1
    -0.07000000  0.07000000  0.00000000 1
    -0.06000000  0.06000000  0.00000000 1
    -0.05000000  0.05000000  0.00000000 1
    -0.04000000  0.04000000  0.00000000 1
    -0.03000000  0.03000000  0.00000000 1
    -0.02000000  0.02000000  0.00000000 1
    -0.01000000  0.01000000  0.00000000 1
    0.00000000  0.00000000  0.00000000 1
    -0.01136364  0.01136364  0.01136364 1
    -0.02272727  0.02272727  0.02272727 1
    -0.03409091  0.03409091  0.03409091 1
    -0.04545455  0.04545455  0.04545455 1
    -0.05681818  0.05681818  0.05681818 1
    -0.06818182  0.06818182  0.06818182 1
    -0.07954545  0.07954545  0.07954545 1
    -0.09090909  0.09090909  0.09090909 1
    -0.10227273  0.10227273  0.10227273 1
    -0.11363636  0.11363636  0.11363636 1
    -0.12500000  0.12500000  0.12500000 1
    -0.13636364  0.13636364  0.13636364 1
    -0.14772727  0.14772727  0.14772727 1
    -0.15909091  0.15909091  0.15909091 1
    -0.17045455  0.17045455  0.17045455 1
    -0.18181818  0.18181818  0.18181818 1
    -0.19318182  0.19318182  0.19318182 1
    -0.20454545  0.20454545  0.20454545 1
    -0.21590909  0.21590909  0.21590909 1
    -0.22727273  0.22727273  0.22727273 1
    -0.23863636  0.23863636  0.23863636 1
    -0.25000000  0.25000000  0.25000000 1
    -0.26136364  0.26136364  0.26136364 1
    -0.27272727  0.27272727  0.27272727 1
    -0.28409091  0.28409091  0.28409091 1
    -0.29545455  0.29545455  0.29545455 1
    -0.30681818  0.30681818  0.30681818 1
    -0.31818182  0.31818182  0.31818182 1
    -0.32954545  0.32954545  0.32954545 1
    -0.34090909  0.34090909  0.34090909 1
    -0.35227273  0.35227273  0.35227273 1
    -0.36363636  0.36363636  0.36363636 1
    -0.37500000  0.37500000  0.37500000 1
    -0.38636364  0.38636364  0.38636364 1
    -0.39772727  0.39772727  0.39772727 1
    -0.40909091  0.40909091  0.40909091 1
    -0.42045455  0.42045455  0.42045455 1
    -0.43181818  0.43181818  0.43181818 1
    -0.44318182  0.44318182  0.44318182 1
    -0.45454545  0.45454545  0.45454545 1
    -0.46590909  0.46590909  0.46590909 1
    -0.47727273  0.47727273  0.47727273 1
    -0.48863636  0.48863636  0.48863636 1
    -0.50000000  0.50000000  0.50000000 1
    -0.49000000  0.51000000  0.50000000 1
    -0.48000000  0.52000000  0.50000000 1
    -0.47000000  0.53000000  0.50000000 1
    -0.46000000  0.54000000  0.50000000 1
    -0.45000000  0.55000000  0.50000000 1
    -0.44000000  0.56000000  0.50000000 1
    -0.43000000  0.57000000  0.50000000 1
    -0.42000000  0.58000000  0.50000000 1
    -0.41000000  0.59000000  0.50000000 1
    -0.40000000  0.60000000  0.50000000 1
    -0.39000000  0.61000000  0.50000000 1
    -0.38000000  0.62000000  0.50000000 1
    -0.37000000  0.63000000  0.50000000 1
    -0.36000000  0.64000000  0.50000000 1
    -0.35000000  0.65000000  0.50000000 1
    -0.34000000  0.66000000  0.50000000 1
    -0.33000000  0.67000000  0.50000000 1
    -0.32000000  0.68000000  0.50000000 1
    -0.31000000  0.69000000  0.50000000 1
    -0.30000000  0.70000000  0.50000000 1
    -0.29000000  0.71000000  0.50000000 1
    -0.28000000  0.72000000  0.50000000 1
    -0.27000000  0.73000000  0.50000000 1
    -0.26000000  0.74000000  0.50000000 1
    -0.25643836  0.73671233  0.50000000 1
    -0.25287671  0.73342466  0.50000000 1
    -0.24931507  0.73013699  0.50000000 1
    -0.24575342  0.72684932  0.50000000 1
    -0.24219178  0.72356164  0.50000000 1
    -0.23863014  0.72027397  0.50000000 1
    -0.23506849  0.71698630  0.50000000 1
    -0.23150685  0.71369863  0.50000000 1
    -0.22794521  0.71041096  0.50000000 1
    -0.22438356  0.70712329  0.50000000 1
    -0.22082192  0.70383562  0.50000000 1
    -0.21726027  0.70054795  0.50000000 1
    -0.21369863  0.69726027  0.50000000 1
    -0.21013699  0.69397260  0.50000000 1
    -0.20657534  0.69068493  0.50000000 1
    -0.20301370  0.68739726  0.50000000 1
    -0.19945205  0.68410959  0.50000000 1
    -0.19589041  0.68082192  0.50000000 1
    -0.19232877  0.67753425  0.50000000 1
    -0.18876712  0.67424658  0.50000000 1
    -0.18520548  0.67095890  0.50000000 1
    -0.18164384  0.66767123  0.50000000 1
    -0.17808219  0.66438356  0.50000000 1
    -0.17452055  0.66109589  0.50000000 1
    -0.17095890  0.65780822  0.50000000 1
    -0.16739726  0.65452055  0.50000000 1
    -0.16383562  0.65123288  0.50000000 1
    -0.16027397  0.64794521  0.50000000 1
    -0.15671233  0.64465753  0.50000000 1
    -0.15315068  0.64136986  0.50000000 1
    -0.14958904  0.63808219  0.50000000 1
    -0.14602740  0.63479452  0.50000000 1
    -0.14246575  0.63150685  0.50000000 1
    -0.13890411  0.62821918  0.50000000 1
    -0.13534247  0.62493151  0.50000000 1
    -0.13178082  0.62164384  0.50000000 1
    -0.12821918  0.61835616  0.50000000 1
    -0.12465753  0.61506849  0.50000000 1
    -0.12109589  0.61178082  0.50000000 1
    -0.11753425  0.60849315  0.50000000 1
    -0.11397260  0.60520548  0.50000000 1
    -0.11041096  0.60191781  0.50000000 1
    -0.10684932  0.59863014  0.50000000 1
    -0.10328767  0.59534247  0.50000000 1
    -0.09972603  0.59205479  0.50000000 1
    -0.09616438  0.58876712  0.50000000 1
    -0.09260274  0.58547945  0.50000000 1
    -0.08904110  0.58219178  0.50000000 1
    -0.08547945  0.57890411  0.50000000 1
    -0.08191781  0.57561644  0.50000000 1
    -0.07835616  0.57232877  0.50000000 1
    -0.07479452  0.56904110  0.50000000 1
    -0.07123288  0.56575342  0.50000000 1
    -0.06767123  0.56246575  0.50000000 1
    -0.06410959  0.55917808  0.50000000 1
    -0.06054795  0.55589041  0.50000000 1
    -0.05698630  0.55260274  0.50000000 1
    -0.05342466  0.54931507  0.50000000 1
    -0.04986301  0.54602740  0.50000000 1
    -0.04630137  0.54273973  0.50000000 1
    -0.04273973  0.53945205  0.50000000 1
    -0.03917808  0.53616438  0.50000000 1
    -0.03561644  0.53287671  0.50000000 1
    -0.03205479  0.52958904  0.50000000 1
    -0.02849315  0.52630137  0.50000000 1
    -0.02493151  0.52301370  0.50000000 1
    -0.02136986  0.51972603  0.50000000 1
    -0.01780822  0.51643836  0.50000000 1
    -0.01424658  0.51315068  0.50000000 1
    -0.01068493  0.50986301  0.50000000 1
    -0.00712329  0.50657534  0.50000000 1
    -0.00356164  0.50328767  0.50000000 1
    0.00000000  0.50000000  0.50000000 1
    0.00000000  0.49367089  0.49367089 1
    0.00000000  0.48734177  0.48734177 1
    0.00000000  0.48101266  0.48101266 1
    0.00000000  0.47468354  0.47468354 1
    0.00000000  0.46835443  0.46835443 1
    0.00000000  0.46202532  0.46202532 1
    0.00000000  0.45569620  0.45569620 1
    0.00000000  0.44936709  0.44936709 1
    0.00000000  0.44303797  0.44303797 1
    0.00000000  0.43670886  0.43670886 1
    0.00000000  0.43037975  0.43037975 1
    0.00000000  0.42405063  0.42405063 1
    0.00000000  0.41772152  0.41772152 1
    0.00000000  0.41139241  0.41139241 1
    0.00000000  0.40506329  0.40506329 1
    0.00000000  0.39873418  0.39873418 1
    0.00000000  0.39240506  0.39240506 1
    0.00000000  0.38607595  0.38607595 1
    0.00000000  0.37974684  0.37974684 1
    0.00000000  0.37341772  0.37341772 1
    0.00000000  0.36708861  0.36708861 1
    0.00000000  0.36075949  0.36075949 1
    0.00000000  0.35443038  0.35443038 1
    0.00000000  0.34810127  0.34810127 1
    0.00000000  0.34177215  0.34177215 1
    0.00000000  0.33544304  0.33544304 1
    0.00000000  0.32911392  0.32911392 1
    0.00000000  0.32278481  0.32278481 1
    0.00000000  0.31645570  0.31645570 1
    0.00000000  0.31012658  0.31012658 1
    0.00000000  0.30379747  0.30379747 1
    0.00000000  0.29746835  0.29746835 1
    0.00000000  0.29113924  0.29113924 1
    0.00000000  0.28481013  0.28481013 1
    0.00000000  0.27848101  0.27848101 1
    0.00000000  0.27215190  0.27215190 1
    0.00000000  0.26582278  0.26582278 1
    0.00000000  0.25949367  0.25949367 1
    0.00000000  0.25316456  0.25316456 1
    0.00000000  0.24683544  0.24683544 1
    0.00000000  0.24050633  0.24050633 1
    0.00000000  0.23417722  0.23417722 1
    0.00000000  0.22784810  0.22784810 1
    0.00000000  0.22151899  0.22151899 1
    0.00000000  0.21518987  0.21518987 1
    0.00000000  0.20886076  0.20886076 1
    0.00000000  0.20253165  0.20253165 1
    0.00000000  0.19620253  0.19620253 1
    0.00000000  0.18987342  0.18987342 1
    0.00000000  0.18354430  0.18354430 1
    0.00000000  0.17721519  0.17721519 1
    0.00000000  0.17088608  0.17088608 1
    0.00000000  0.16455696  0.16455696 1
    0.00000000  0.15822785  0.15822785 1
    0.00000000  0.15189873  0.15189873 1
    0.00000000  0.14556962  0.14556962 1
    0.00000000  0.13924051  0.13924051 1
    0.00000000  0.13291139  0.13291139 1
    0.00000000  0.12658228  0.12658228 1
    0.00000000  0.12025316  0.12025316 1
    0.00000000  0.11392405  0.11392405 1
    0.00000000  0.10759494  0.10759494 1
    0.00000000  0.10126582  0.10126582 1
    0.00000000  0.09493671  0.09493671 1
    0.00000000  0.08860759  0.08860759 1
    0.00000000  0.08227848  0.08227848 1
    0.00000000  0.07594937  0.07594937 1
    0.00000000  0.06962025  0.06962025 1
    0.00000000  0.06329114  0.06329114 1
    0.00000000  0.05696203  0.05696203 1
    0.00000000  0.05063291  0.05063291 1
    0.00000000  0.04430380  0.04430380 1
    0.00000000  0.03797468  0.03797468 1
    0.00000000  0.03164557  0.03164557 1
    0.00000000  0.02531646  0.02531646 1
    0.00000000  0.01898734  0.01898734 1
    0.00000000  0.01265823  0.01265823 1
    0.00000000  0.00632911  0.00632911 1
    0.00000000  0.00000000  0.00000000 1
    0.00000000  0.00000000  0.01470588 1
    0.00000000  0.00000000  0.02941176 1
    0.00000000  0.00000000  0.04411765 1
    0.00000000  0.00000000  0.05882353 1
    0.00000000  0.00000000  0.07352941 1
    0.00000000  0.00000000  0.08823529 1
    0.00000000  0.00000000  0.10294118 1
    0.00000000  0.00000000  0.11764706 1
    0.00000000  0.00000000  0.13235294 1
    0.00000000  0.00000000  0.14705882 1
    0.00000000  0.00000000  0.16176471 1
    0.00000000  0.00000000  0.17647059 1
    0.00000000  0.00000000  0.19117647 1
    0.00000000  0.00000000  0.20588235 1
    0.00000000  0.00000000  0.22058824 1
    0.00000000  0.00000000  0.23529412 1
    0.00000000  0.00000000  0.25000000 1
    0.00000000  0.00000000  0.26470588 1
    0.00000000  0.00000000  0.27941176 1
    0.00000000  0.00000000  0.29411765 1
    0.00000000  0.00000000  0.30882353 1
    0.00000000  0.00000000  0.32352941 1
    0.00000000  0.00000000  0.33823529 1
    0.00000000  0.00000000  0.35294118 1
    0.00000000  0.00000000  0.36764706 1
    0.00000000  0.00000000  0.38235294 1
    0.00000000  0.00000000  0.39705882 1
    0.00000000  0.00000000  0.41176471 1
    0.00000000  0.00000000  0.42647059 1
    0.00000000  0.00000000  0.44117647 1
    0.00000000  0.00000000  0.45588235 1
    0.00000000  0.00000000  0.47058824 1
    0.00000000  0.00000000  0.48529412 1
    0.00000000  0.00000000  0.50000000 1
