&CONTROL
  calculation = 'bands',
  prefix = 'nbti',
  pseudo_dir = '../../pseudo/',
  verbosity = 'low',
/
&SYSTEM
  degauss = 0.015,
  ecutrho = 340.0,
  ecutwfc = 85.0,
  ibrav = 0,
  nbnd = 40,
  nosym = .FALSE.,
  occupations = 'smearing',
  smearing = 'gauss',
  nat = 2,
  ntyp = 2,
/
&ELECTRONS
  conv_thr = 1d-10,
  diagonalization = 'davidson',
  electron_maxstep = 40,
  mixing_beta = 0.7,
/
&IONS
/
&CELL
/
ATOMIC_SPECIES
  Nb  92.9064 Nb.upf
  Ti  47.8670 Ti.upf
ATOMIC_POSITIONS crystal
  Ti 0.500000000000 0.500000000000 0.500000000000
  Nb 0.000000000000 0.000000000000 0.000000000000
CELL_PARAMETERS angstrom
      2.7784453250      0.0000000000      0.0000000000
      0.0000000000      2.7784453250      0.0000000000
      0.0000000000      0.0000000000      2.7784453250
K_POINTS crystal
746
    0.00000000  0.00000000  0.00000000 1
    0.00000000  0.00442478  0.00000000 1
    0.00000000  0.00884956  0.00000000 1
    0.00000000  0.01327434  0.00000000 1
    0.00000000  0.01769912  0.00000000 1
    0.00000000  0.02212389  0.00000000 1
    0.00000000  0.02654867  0.00000000 1
    0.00000000  0.03097345  0.00000000 1
    0.00000000  0.03539823  0.00000000 1
    0.00000000  0.03982301  0.00000000 1
    0.00000000  0.04424779  0.00000000 1
    0.00000000  0.04867257  0.00000000 1
    0.00000000  0.05309735  0.00000000 1
    0.00000000  0.05752212  0.00000000 1
    0.00000000  0.06194690  0.00000000 1
    0.00000000  0.06637168  0.00000000 1
    0.00000000  0.07079646  0.00000000 1
    0.00000000  0.07522124  0.00000000 1
    0.00000000  0.07964602  0.00000000 1
    0.00000000  0.08407080  0.00000000 1
    0.00000000  0.08849558  0.00000000 1
    0.00000000  0.09292035  0.00000000 1
    0.00000000  0.09734513  0.00000000 1
    0.00000000  0.10176991  0.00000000 1
    0.00000000  0.10619469  0.00000000 1
    0.00000000  0.11061947  0.00000000 1
    0.00000000  0.11504425  0.00000000 1
    0.00000000  0.11946903  0.00000000 1
    0.00000000  0.12389381  0.00000000 1
    0.00000000  0.12831858  0.00000000 1
    0.00000000  0.13274336  0.00000000 1
    0.00000000  0.13716814  0.00000000 1
    0.00000000  0.14159292  0.00000000 1
    0.00000000  0.14601770  0.00000000 1
    0.00000000  0.15044248  0.00000000 1
    0.00000000  0.15486726  0.00000000 1
    0.00000000  0.15929204  0.00000000 1
    0.00000000  0.16371681  0.00000000 1
    0.00000000  0.16814159  0.00000000 1
    0.00000000  0.17256637  0.00000000 1
    0.00000000  0.17699115  0.00000000 1
    0.00000000  0.18141593  0.00000000 1
    0.00000000  0.18584071  0.00000000 1
    0.00000000  0.19026549  0.00000000 1
    0.00000000  0.19469027  0.00000000 1
    0.00000000  0.19911504  0.00000000 1
    0.00000000  0.20353982  0.00000000 1
    0.00000000  0.20796460  0.00000000 1
    0.00000000  0.21238938  0.00000000 1
    0.00000000  0.21681416  0.00000000 1
    0.00000000  0.22123894  0.00000000 1
    0.00000000  0.22566372  0.00000000 1
    0.00000000  0.23008850  0.00000000 1
    0.00000000  0.23451327  0.00000000 1
    0.00000000  0.23893805  0.00000000 1
    0.00000000  0.24336283  0.00000000 1
    0.00000000  0.24778761  0.00000000 1
    0.00000000  0.25221239  0.00000000 1
    0.00000000  0.25663717  0.00000000 1
    0.00000000  0.26106195  0.00000000 1
    0.00000000  0.26548673  0.00000000 1
    0.00000000  0.26991150  0.00000000 1
    0.00000000  0.27433628  0.00000000 1
    0.00000000  0.27876106  0.00000000 1
    0.00000000  0.28318584  0.00000000 1
    0.00000000  0.28761062  0.00000000 1
    0.00000000  0.29203540  0.00000000 1
    0.00000000  0.29646018  0.00000000 1
    0.00000000  0.30088496  0.00000000 1
    0.00000000  0.30530973  0.00000000 1
    0.00000000  0.30973451  0.00000000 1
    0.00000000  0.31415929  0.00000000 1
    0.00000000  0.31858407  0.00000000 1
    0.00000000  0.32300885  0.00000000 1
    0.00000000  0.32743363  0.00000000 1
    0.00000000  0.33185841  0.00000000 1
    0.00000000  0.33628319  0.00000000 1
    0.00000000  0.34070796  0.00000000 1
    0.00000000  0.34513274  0.00000000 1
    0.00000000  0.34955752  0.00000000 1
    0.00000000  0.35398230  0.00000000 1
    0.00000000  0.35840708  0.00000000 1
    0.00000000  0.36283186  0.00000000 1
    0.00000000  0.36725664  0.00000000 1
    0.00000000  0.37168142  0.00000000 1
    0.00000000  0.37610619  0.00000000 1
    0.00000000  0.38053097  0.00000000 1
    0.00000000  0.38495575  0.00000000 1
    0.00000000  0.38938053  0.00000000 1
    0.00000000  0.39380531  0.00000000 1
    0.00000000  0.39823009  0.00000000 1
    0.00000000  0.40265487  0.00000000 1
    0.00000000  0.40707965  0.00000000 1
    0.00000000  0.41150442  0.00000000 1
    0.00000000  0.41592920  0.00000000 1
    0.00000000  0.42035398  0.00000000 1
    0.00000000  0.42477876  0.00000000 1
    0.00000000  0.42920354  0.00000000 1
    0.00000000  0.43362832  0.00000000 1
    0.00000000  0.43805310  0.00000000 1
    0.00000000  0.44247788  0.00000000 1
    0.00000000  0.44690265  0.00000000 1
    0.00000000  0.45132743  0.00000000 1
    0.00000000  0.45575221  0.00000000 1
    0.00000000  0.46017699  0.00000000 1
    0.00000000  0.46460177  0.00000000 1
    0.00000000  0.46902655  0.00000000 1
    0.00000000  0.47345133  0.00000000 1
    0.00000000  0.47787611  0.00000000 1
    0.00000000  0.48230088  0.00000000 1
    0.00000000  0.48672566  0.00000000 1
    0.00000000  0.49115044  0.00000000 1
    0.00000000  0.49557522  0.00000000 1
    0.00000000  0.50000000  0.00000000 1
    0.00442478  0.50000000  0.00000000 1
    0.00884956  0.50000000  0.00000000 1
    0.01327434  0.50000000  0.00000000 1
    0.01769912  0.50000000  0.00000000 1
    0.02212389  0.50000000  0.00000000 1
    0.02654867  0.50000000  0.00000000 1
    0.03097345  0.50000000  0.00000000 1
    0.03539823  0.50000000  0.00000000 1
    0.03982301  0.50000000  0.00000000 1
    0.04424779  0.50000000  0.00000000 1
    0.04867257  0.50000000  0.00000000 1
    0.05309735  0.50000000  0.00000000 1
    0.05752212  0.50000000  0.00000000 1
    0.06194690  0.50000000  0.00000000 1
    0.06637168  0.50000000  0.00000000 1
    0.07079646  0.50000000  0.00000000 1
    0.07522124  0.50000000  0.00000000 1
    0.07964602  0.50000000  0.00000000 1
    0.08407080  0.50000000  0.00000000 1
    0.08849558  0.50000000  0.00000000 1
    0.09292035  0.50000000  0.00000000 1
    0.09734513  0.50000000  0.00000000 1
    0.10176991  0.50000000  0.00000000 1
    0.10619469  0.50000000  0.00000000 1
    0.11061947  0.50000000  0.00000000 1
    0.11504425  0.50000000  0.00000000 1
    0.11946903  0.50000000  0.00000000 1
    0.12389381  0.50000000  0.00000000 1
    0.12831858  0.50000000  0.00000000 1
    0.13274336  0.50000000  0.00000000 1
    0.13716814  0.50000000  0.00000000 1
    0.14159292  0.50000000  0.00000000 1
    0.14601770  0.50000000  0.00000000 1
    0.15044248  0.50000000  0.00000000 1
    0.15486726  0.50000000  0.00000000 1
    0.15929204  0.50000000  0.00000000 1
    0.16371681  0.50000000  0.00000000 1
    0.16814159  0.50000000  0.00000000 1
    0.17256637  0.50000000  0.00000000 1
    0.17699115  0.50000000  0.00000000 1
    0.18141593  0.50000000  0.00000000 1
    0.18584071  0.50000000  0.00000000 1
    0.19026549  0.50000000  0.00000000 1
    0.19469027  0.50000000  0.00000000 1
    0.19911504  0.50000000  0.00000000 1
    0.20353982  0.50000000  0.00000000 1
    0.20796460  0.50000000  0.00000000 1
    0.21238938  0.50000000  0.00000000 1
    0.21681416  0.50000000  0.00000000 1
    0.22123894  0.50000000  0.00000000 1
    0.22566372  0.50000000  0.00000000 1
    0.23008850  0.50000000  0.00000000 1
    0.23451327  0.50000000  0.00000000 1
    0.23893805  0.50000000  0.00000000 1
    0.24336283  0.50000000  0.00000000 1
    0.24778761  0.50000000  0.00000000 1
    0.25221239  0.50000000  0.00000000 1
    0.25663717  0.50000000  0.00000000 1
    0.26106195  0.50000000  0.00000000 1
    0.26548673  0.50000000  0.00000000 1
    0.26991150  0.50000000  0.00000000 1
    0.27433628  0.50000000  0.00000000 1
    0.27876106  0.50000000  0.00000000 1
    0.28318584  0.50000000  0.00000000 1
    0.28761062  0.50000000  0.00000000 1
    0.29203540  0.50000000  0.00000000 1
    0.29646018  0.50000000  0.00000000 1
    0.30088496  0.50000000  0.00000000 1
    0.30530973  0.50000000  0.00000000 1
    0.30973451  0.50000000  0.00000000 1
    0.31415929  0.50000000  0.00000000 1
    0.31858407  0.50000000  0.00000000 1
    0.32300885  0.50000000  0.00000000 1
    0.32743363  0.50000000  0.00000000 1
    0.33185841  0.50000000  0.00000000 1
    0.33628319  0.50000000  0.00000000 1
    0.34070796  0.50000000  0.00000000 1
    0.34513274  0.50000000  0.00000000 1
    0.34955752  0.50000000  0.00000000 1
    0.35398230  0.50000000  0.00000000 1
    0.35840708  0.50000000  0.00000000 1
    0.36283186  0.50000000  0.00000000 1
    0.36725664  0.50000000  0.00000000 1
    0.37168142  0.50000000  0.00000000 1
    0.37610619  0.50000000  0.00000000 1
    0.38053097  0.50000000  0.00000000 1
    0.38495575  0.50000000  0.00000000 1
    0.38938053  0.50000000  0.00000000 1
    0.39380531  0.50000000  0.00000000 1
    0.39823009  0.50000000  0.00000000 1
    0.40265487  0.50000000  0.00000000 1
    0.40707965  0.50000000  0.00000000 1
    0.41150442  0.50000000  0.00000000 1
    0.41592920  0.50000000  0.00000000 1
    0.42035398  0.50000000  0.00000000 1
    0.42477876  0.50000000  0.00000000 1
    0.42920354  0.50000000  0.00000000 1
    0.43362832  0.50000000  0.00000000 1
    0.43805310  0.50000000  0.00000000 1
    0.44247788  0.50000000  0.00000000 1
    0.44690265  0.50000000  0.00000000 1
    0.45132743  0.50000000  0.00000000 1
    0.45575221  0.50000000  0.00000000 1
    0.46017699  0.50000000  0.00000000 1
    0.46460177  0.50000000  0.00000000 1
    0.46902655  0.50000000  0.00000000 1
    0.47345133  0.50000000  0.00000000 1
    0.47787611  0.50000000  0.00000000 1
    0.48230088  0.50000000  0.00000000 1
    0.48672566  0.50000000  0.00000000 1
    0.49115044  0.50000000  0.00000000 1
    0.49557522  0.50000000  0.00000000 1
    0.50000000  0.50000000  0.00000000 1
    0.49689441  0.49689441  0.00000000 1
    0.49378882  0.49378882  0.00000000 1
    0.49068323  0.49068323  0.00000000 1
    0.48757764  0.48757764  0.00000000 1
    0.48447205  0.48447205  0.00000000 1
    0.48136646  0.48136646  0.00000000 1
    0.47826087  0.47826087  0.00000000 1
    0.47515528  0.47515528  0.00000000 1
    0.47204969  0.47204969  0.00000000 1
    0.46894410  0.46894410  0.00000000 1
    0.46583851  0.46583851  0.00000000 1
    0.46273292  0.46273292  0.00000000 1
    0.45962733  0.45962733  0.00000000 1
    0.45652174  0.45652174  0.00000000 1
    0.45341615  0.45341615  0.00000000 1
    0.45031056  0.45031056  0.00000000 1
    0.44720497  0.44720497  0.00000000 1
    0.44409938  0.44409938  0.00000000 1
    0.44099379  0.44099379  0.00000000 1
    0.43788820  0.43788820  0.00000000 1
    0.43478261  0.43478261  0.00000000 1
    0.43167702  0.43167702  0.00000000 1
    0.42857143  0.42857143  0.00000000 1
    0.42546584  0.42546584  0.00000000 1
    0.42236025  0.42236025  0.00000000 1
    0.41925466  0.41925466  0.00000000 1
    0.41614907  0.41614907  0.00000000 1
    0.41304348  0.41304348  0.00000000 1
    0.40993789  0.40993789  0.00000000 1
    0.40683230  0.40683230  0.00000000 1
    0.40372671  0.40372671  0.00000000 1
    0.40062112  0.40062112  0.00000000 1
    0.39751553  0.39751553  0.00000000 1
    0.39440994  0.39440994  0.00000000 1
    0.39130435  0.39130435  0.00000000 1
    0.38819876  0.38819876  0.00000000 1
    0.38509317  0.38509317  0.00000000 1
    0.38198758  0.38198758  0.00000000 1
    0.37888199  0.37888199  0.00000000 1
    0.37577640  0.37577640  0.00000000 1
    0.37267081  0.37267081  0.00000000 1
    0.36956522  0.36956522  0.00000000 1
    0.36645963  0.36645963  0.00000000 1
    0.36335404  0.36335404  0.00000000 1
    0.36024845  0.36024845  0.00000000 1
    0.35714286  0.35714286  0.00000000 1
    0.35403727  0.35403727  0.00000000 1
    0.35093168  0.35093168  0.00000000 1
    0.34782609  0.34782609  0.00000000 1
    0.34472050  0.34472050  0.00000000 1
    0.34161491  0.34161491  0.00000000 1
    0.33850932  0.33850932  0.00000000 1
    0.33540373  0.33540373  0.00000000 1
    0.33229814  0.33229814  0.00000000 1
    0.32919255  0.32919255  0.00000000 1
    0.32608696  0.32608696  0.00000000 1
    0.32298137  0.32298137  0.00000000 1
    0.31987578  0.31987578  0.00000000 1
    0.31677019  0.31677019  0.00000000 1
    0.31366460  0.31366460  0.00000000 1
    0.31055901  0.31055901  0.00000000 1
    0.30745342  0.30745342  0.00000000 1
    0.30434783  0.30434783  0.00000000 1
    0.30124224  0.30124224  0.00000000 1
    0.29813665  0.29813665  0.00000000 1
    0.29503106  0.29503106  0.00000000 1
    0.29192547  0.29192547  0.00000000 1
    0.28881988  0.28881988  0.00000000 1
    0.28571429  0.28571429  0.00000000 1
    0.28260870  0.28260870  0.00000000 1
    0.27950311  0.27950311  0.00000000 1
    0.27639752  0.27639752  0.00000000 1
    0.27329193  0.27329193  0.00000000 1
    0.27018634  0.27018634  0.00000000 1
    0.26708075  0.26708075  0.00000000 1
    0.26397516  0.26397516  0.00000000 1
    0.26086957  0.26086957  0.00000000 1
    0.25776398  0.25776398  0.00000000 1
    0.25465839  0.25465839  0.00000000 1
    0.25155280  0.25155280  0.00000000 1
    0.24844720  0.24844720  0.00000000 1
    0.24534161  0.24534161  0.00000000 1
    0.24223602  0.24223602  0.00000000 1
    0.23913043  0.23913043  0.00000000 1
    0.23602484  0.23602484  0.00000000 1
    0.23291925  0.23291925  0.00000000 1
    0.22981366  0.22981366  0.00000000 1
    0.22670807  0.22670807  0.00000000 1
    0.22360248  0.22360248  0.00000000 1
    0.22049689  0.22049689  0.00000000 1
    0.21739130  0.21739130  0.00000000 1
    0.21428571  0.21428571  0.00000000 1
    0.21118012  0.21118012  0.00000000 1
    0.20807453  0.20807453  0.00000000 1
    0.20496894  0.20496894  0.00000000 1
    0.20186335  0.20186335  0.00000000 1
    0.19875776  0.19875776  0.00000000 1
    0.19565217  0.19565217  0.00000000 1
    0.19254658  0.19254658  0.00000000 1
    0.18944099  0.18944099  0.00000000 1
    0.18633540  0.18633540  0.00000000 1
    0.18322981  0.18322981  0.00000000 1
    0.18012422  0.18012422  0.00000000 1
    0.17701863  0.17701863  0.00000000 1
    0.17391304  0.17391304  0.00000000 1
    0.17080745  0.17080745  0.00000000 1
    0.16770186  0.16770186  0.00000000 1
    0.16459627  0.16459627  0.00000000 1
    0.16149068  0.16149068  0.00000000 1
    0.15838509  0.15838509  0.00000000 1
    0.15527950  0.15527950  0.00000000 1
    0.15217391  0.15217391  0.00000000 1
    0.14906832  0.14906832  0.00000000 1
    0.14596273  0.14596273  0.00000000 1
    0.14285714  0.14285714  0.00000000 1
    0.13975155  0.13975155  0.00000000 1
    0.13664596  0.13664596  0.00000000 1
    0.13354037  0.13354037  0.00000000 1
    0.13043478  0.13043478  0.00000000 1
    0.12732919  0.12732919  0.00000000 1
    0.12422360  0.12422360  0.00000000 1
    0.12111801  0.12111801  0.00000000 1
    0.11801242  0.11801242  0.00000000 1
    0.11490683  0.11490683  0.00000000 1
    0.11180124  0.11180124  0.00000000 1
    0.10869565  0.10869565  0.00000000 1
    0.10559006  0.10559006  0.00000000 1
    0.10248447  0.10248447  0.00000000 1
    0.09937888  0.09937888  0.00000000 1
    0.09627329  0.09627329  0.00000000 1
    0.09316770  0.09316770  0.00000000 1
    0.09006211  0.09006211  0.00000000 1
    0.08695652  0.08695652  0.00000000 1
    0.08385093  0.08385093  0.00000000 1
    0.08074534  0.08074534  0.00000000 1
    0.07763975  0.07763975  0.00000000 1
    0.07453416  0.07453416  0.00000000 1
    0.07142857  0.07142857  0.00000000 1
    0.06832298  0.06832298  0.00000000 1
    0.06521739  0.06521739  0.00000000 1
    0.06211180  0.06211180  0.00000000 1
    0.05900621  0.05900621  0.00000000 1
    0.05590062  0.05590062  0.00000000 1
    0.05279503  0.05279503  0.00000000 1
    0.04968944  0.04968944  0.00000000 1
    0.04658385  0.04658385  0.00000000 1
    0.04347826  0.04347826  0.00000000 1
    0.04037267  0.04037267  0.00000000 1
    0.03726708  0.03726708  0.00000000 1
    0.03416149  0.03416149  0.00000000 1
    0.03105590  0.03105590  0.00000000 1
    0.02795031  0.02795031  0.00000000 1
    0.02484472  0.02484472  0.00000000 1
    0.02173913  0.02173913  0.00000000 1
    0.01863354  0.01863354  0.00000000 1
    0.01552795  0.01552795  0.00000000 1
    0.01242236  0.01242236  0.00000000 1
    0.00931677  0.00931677  0.00000000 1
    0.00621118  0.00621118  0.00000000 1
    0.00310559  0.00310559  0.00000000 1
    0.00000000  0.00000000  0.00000000 1
    0.00253807  0.00253807  0.00253807 1
    0.00507614  0.00507614  0.00507614 1
    0.00761421  0.00761421  0.00761421 1
    0.01015228  0.01015228  0.01015228 1
    0.01269036  0.01269036  0.01269036 1
    0.01522843  0.01522843  0.01522843 1
    0.01776650  0.01776650  0.01776650 1
    0.02030457  0.02030457  0.02030457 1
    0.02284264  0.02284264  0.02284264 1
    0.02538071  0.02538071  0.02538071 1
    0.02791878  0.02791878  0.02791878 1
    0.03045685  0.03045685  0.03045685 1
    0.03299492  0.03299492  0.03299492 1
    0.03553299  0.03553299  0.03553299 1
    0.03807107  0.03807107  0.03807107 1
    0.04060914  0.04060914  0.04060914 1
    0.04314721  0.04314721  0.04314721 1
    0.04568528  0.04568528  0.04568528 1
    0.04822335  0.04822335  0.04822335 1
    0.05076142  0.05076142  0.05076142 1
    0.05329949  0.05329949  0.05329949 1
    0.05583756  0.05583756  0.05583756 1
    0.05837563  0.05837563  0.05837563 1
    0.06091371  0.06091371  0.06091371 1
    0.06345178  0.06345178  0.06345178 1
    0.06598985  0.06598985  0.06598985 1
    0.06852792  0.06852792  0.06852792 1
    0.07106599  0.07106599  0.07106599 1
    0.07360406  0.07360406  0.07360406 1
    0.07614213  0.07614213  0.07614213 1
    0.07868020  0.07868020  0.07868020 1
    0.08121827  0.08121827  0.08121827 1
    0.08375635  0.08375635  0.08375635 1
    0.08629442  0.08629442  0.08629442 1
    0.08883249  0.08883249  0.08883249 1
    0.09137056  0.09137056  0.09137056 1
    0.09390863  0.09390863  0.09390863 1
    0.09644670  0.09644670  0.09644670 1
    0.09898477  0.09898477  0.09898477 1
    0.10152284  0.10152284  0.10152284 1
    0.10406091  0.10406091  0.10406091 1
    0.10659898  0.10659898  0.10659898 1
    0.10913706  0.10913706  0.10913706 1
    0.11167513  0.11167513  0.11167513 1
    0.11421320  0.11421320  0.11421320 1
    0.11675127  0.11675127  0.11675127 1
    0.11928934  0.11928934  0.11928934 1
    0.12182741  0.12182741  0.12182741 1
    0.12436548  0.12436548  0.12436548 1
    0.12690355  0.12690355  0.12690355 1
    0.12944162  0.12944162  0.12944162 1
    0.13197970  0.13197970  0.13197970 1
    0.13451777  0.13451777  0.13451777 1
    0.13705584  0.13705584  0.13705584 1
    0.13959391  0.13959391  0.13959391 1
    0.14213198  0.14213198  0.14213198 1
    0.14467005  0.14467005  0.14467005 1
    0.14720812  0.14720812  0.14720812 1
    0.14974619  0.14974619  0.14974619 1
    0.15228426  0.15228426  0.15228426 1
    0.15482234  0.15482234  0.15482234 1
    0.15736041  0.15736041  0.15736041 1
    0.15989848  0.15989848  0.15989848 1
    0.16243655  0.16243655  0.16243655 1
    0.16497462  0.16497462  0.16497462 1
    0.16751269  0.16751269  0.16751269 1
    0.17005076  0.17005076  0.17005076 1
    0.17258883  0.17258883  0.17258883 1
    0.17512690  0.17512690  0.17512690 1
    0.17766497  0.17766497  0.17766497 1
    0.18020305  0.18020305  0.18020305 1
    0.18274112  0.18274112  0.18274112 1
    0.18527919  0.18527919  0.18527919 1
    0.18781726  0.18781726  0.18781726 1
    0.19035533  0.19035533  0.19035533 1
    0.19289340  0.19289340  0.19289340 1
    0.19543147  0.19543147  0.19543147 1
    0.19796954  0.19796954  0.19796954 1
    0.20050761  0.20050761  0.20050761 1
    0.20304569  0.20304569  0.20304569 1
    0.20558376  0.20558376  0.20558376 1
    0.20812183  0.20812183  0.20812183 1
    0.21065990  0.21065990  0.21065990 1
    0.21319797  0.21319797  0.21319797 1
    0.21573604  0.21573604  0.21573604 1
    0.21827411  0.21827411  0.21827411 1
    0.22081218  0.22081218  0.22081218 1
    0.22335025  0.22335025  0.22335025 1
    0.22588832  0.22588832  0.22588832 1
    0.22842640  0.22842640  0.22842640 1
    0.23096447  0.23096447  0.23096447 1
    0.23350254  0.23350254  0.23350254 1
    0.23604061  0.23604061  0.23604061 1
    0.23857868  0.23857868  0.23857868 1
    0.24111675  0.24111675  0.24111675 1
    0.24365482  0.24365482  0.24365482 1
    0.24619289  0.24619289  0.24619289 1
    0.24873096  0.24873096  0.24873096 1
    0.25126904  0.25126904  0.25126904 1
    0.25380711  0.25380711  0.25380711 1
    0.25634518  0.25634518  0.25634518 1
    0.25888325  0.25888325  0.25888325 1
    0.26142132  0.26142132  0.26142132 1
    0.26395939  0.26395939  0.26395939 1
    0.26649746  0.26649746  0.26649746 1
    0.26903553  0.26903553  0.26903553 1
    0.27157360  0.27157360  0.27157360 1
    0.27411168  0.27411168  0.27411168 1
    0.27664975  0.27664975  0.27664975 1
    0.27918782  0.27918782  0.27918782 1
    0.28172589  0.28172589  0.28172589 1
    0.28426396  0.28426396  0.28426396 1
    0.28680203  0.28680203  0.28680203 1
    0.28934010  0.28934010  0.28934010 1
    0.29187817  0.29187817  0.29187817 1
    0.29441624  0.29441624  0.29441624 1
    0.29695431  0.29695431  0.29695431 1
    0.29949239  0.29949239  0.29949239 1
    0.30203046  0.30203046  0.30203046 1
    0.30456853  0.30456853  0.30456853 1
    0.30710660  0.30710660  0.30710660 1
    0.30964467  0.30964467  0.30964467 1
    0.31218274  0.31218274  0.31218274 1
    0.31472081  0.31472081  0.31472081 1
    0.31725888  0.31725888  0.31725888 1
    0.31979695  0.31979695  0.31979695 1
    0.32233503  0.32233503  0.32233503 1
    0.32487310  0.32487310  0.32487310 1
    0.32741117  0.32741117  0.32741117 1
    0.32994924  0.32994924  0.32994924 1
    0.33248731  0.33248731  0.33248731 1
    0.33502538  0.33502538  0.33502538 1
    0.33756345  0.33756345  0.33756345 1
    0.34010152  0.34010152  0.34010152 1
    0.34263959  0.34263959  0.34263959 1
    0.34517766  0.34517766  0.34517766 1
    0.34771574  0.34771574  0.34771574 1
    0.35025381  0.35025381  0.35025381 1
    0.35279188  0.35279188  0.35279188 1
    0.35532995  0.35532995  0.35532995 1
    0.35786802  0.35786802  0.35786802 1
    0.36040609  0.36040609  0.36040609 1
    0.36294416  0.36294416  0.36294416 1
    0.36548223  0.36548223  0.36548223 1
    0.36802030  0.36802030  0.36802030 1
    0.37055838  0.37055838  0.37055838 1
    0.37309645  0.37309645  0.37309645 1
    0.37563452  0.37563452  0.37563452 1
    0.37817259  0.37817259  0.37817259 1
    0.38071066  0.38071066  0.38071066 1
    0.38324873  0.38324873  0.38324873 1
    0.38578680  0.38578680  0.38578680 1
    0.38832487  0.38832487  0.38832487 1
    0.39086294  0.39086294  0.39086294 1
    0.39340102  0.39340102  0.39340102 1
    0.39593909  0.39593909  0.39593909 1
    0.39847716  0.39847716  0.39847716 1
    0.40101523  0.40101523  0.40101523 1
    0.40355330  0.40355330  0.40355330 1
    0.40609137  0.40609137  0.40609137 1
    0.40862944  0.40862944  0.40862944 1
    0.41116751  0.41116751  0.41116751 1
    0.41370558  0.41370558  0.41370558 1
    0.41624365  0.41624365  0.41624365 1
    0.41878173  0.41878173  0.41878173 1
    0.42131980  0.42131980  0.42131980 1
    0.42385787  0.42385787  0.42385787 1
    0.42639594  0.42639594  0.42639594 1
    0.42893401  0.42893401  0.42893401 1
    0.43147208  0.43147208  0.43147208 1
    0.43401015  0.43401015  0.43401015 1
    0.43654822  0.43654822  0.43654822 1
    0.43908629  0.43908629  0.43908629 1
    0.44162437  0.44162437  0.44162437 1
    0.44416244  0.44416244  0.44416244 1
    0.44670051  0.44670051  0.44670051 1
    0.44923858  0.44923858  0.44923858 1
    0.45177665  0.45177665  0.45177665 1
    0.45431472  0.45431472  0.45431472 1
    0.45685279  0.45685279  0.45685279 1
    0.45939086  0.45939086  0.45939086 1
    0.46192893  0.46192893  0.46192893 1
    0.46446701  0.46446701  0.46446701 1
    0.46700508  0.46700508  0.46700508 1
    0.46954315  0.46954315  0.46954315 1
    0.47208122  0.47208122  0.47208122 1
    0.47461929  0.47461929  0.47461929 1
    0.47715736  0.47715736  0.47715736 1
    0.47969543  0.47969543  0.47969543 1
    0.48223350  0.48223350  0.48223350 1
    0.48477157  0.48477157  0.48477157 1
    0.48730964  0.48730964  0.48730964 1
    0.48984772  0.48984772  0.48984772 1
    0.49238579  0.49238579  0.49238579 1
    0.49492386  0.49492386  0.49492386 1
    0.49746193  0.49746193  0.49746193 1
    0.50000000  0.50000000  0.50000000 1
    0.49689441  0.50000000  0.49689441 1
    0.49378882  0.50000000  0.49378882 1
    0.49068323  0.50000000  0.49068323 1
    0.48757764  0.50000000  0.48757764 1
    0.48447205  0.50000000  0.48447205 1
    0.48136646  0.50000000  0.48136646 1
    0.47826087  0.50000000  0.47826087 1
    0.47515528  0.50000000  0.47515528 1
    0.47204969  0.50000000  0.47204969 1
    0.46894410  0.50000000  0.46894410 1
    0.46583851  0.50000000  0.46583851 1
    0.46273292  0.50000000  0.46273292 1
    0.45962733  0.50000000  0.45962733 1
    0.45652174  0.50000000  0.45652174 1
    0.45341615  0.50000000  0.45341615 1
    0.45031056  0.50000000  0.45031056 1
    0.44720497  0.50000000  0.44720497 1
    0.44409938  0.50000000  0.44409938 1
    0.44099379  0.50000000  0.44099379 1
    0.43788820  0.50000000  0.43788820 1
    0.43478261  0.50000000  0.43478261 1
    0.43167702  0.50000000  0.43167702 1
    0.42857143  0.50000000  0.42857143 1
    0.42546584  0.50000000  0.42546584 1
    0.42236025  0.50000000  0.42236025 1
    0.41925466  0.50000000  0.41925466 1
    0.41614907  0.50000000  0.41614907 1
    0.41304348  0.50000000  0.41304348 1
    0.40993789  0.50000000  0.40993789 1
    0.40683230  0.50000000  0.40683230 1
    0.40372671  0.50000000  0.40372671 1
    0.40062112  0.50000000  0.40062112 1
    0.39751553  0.50000000  0.39751553 1
    0.39440994  0.50000000  0.39440994 1
    0.39130435  0.50000000  0.39130435 1
    0.38819876  0.50000000  0.38819876 1
    0.38509317  0.50000000  0.38509317 1
    0.38198758  0.50000000  0.38198758 1
    0.37888199  0.50000000  0.37888199 1
    0.37577640  0.50000000  0.37577640 1
    0.37267081  0.50000000  0.37267081 1
    0.36956522  0.50000000  0.36956522 1
    0.36645963  0.50000000  0.36645963 1
    0.36335404  0.50000000  0.36335404 1
    0.36024845  0.50000000  0.36024845 1
    0.35714286  0.50000000  0.35714286 1
    0.35403727  0.50000000  0.35403727 1
    0.35093168  0.50000000  0.35093168 1
    0.34782609  0.50000000  0.34782609 1
    0.34472050  0.50000000  0.34472050 1
    0.34161491  0.50000000  0.34161491 1
    0.33850932  0.50000000  0.33850932 1
    0.33540373  0.50000000  0.33540373 1
    0.33229814  0.50000000  0.33229814 1
    0.32919255  0.50000000  0.32919255 1
    0.32608696  0.50000000  0.32608696 1
    0.32298137  0.50000000  0.32298137 1
    0.31987578  0.50000000  0.31987578 1
    0.31677019  0.50000000  0.31677019 1
    0.31366460  0.50000000  0.31366460 1
    0.31055901  0.50000000  0.31055901 1
    0.30745342  0.50000000  0.30745342 1
    0.30434783  0.50000000  0.30434783 1
    0.30124224  0.50000000  0.30124224 1
    0.29813665  0.50000000  0.29813665 1
    0.29503106  0.50000000  0.29503106 1
    0.29192547  0.50000000  0.29192547 1
    0.28881988  0.50000000  0.28881988 1
    0.28571429  0.50000000  0.28571429 1
    0.28260870  0.50000000  0.28260870 1
    0.27950311  0.50000000  0.27950311 1
    0.27639752  0.50000000  0.27639752 1
    0.27329193  0.50000000  0.27329193 1
    0.27018634  0.50000000  0.27018634 1
    0.26708075  0.50000000  0.26708075 1
    0.26397516  0.50000000  0.26397516 1
    0.26086957  0.50000000  0.26086957 1
    0.25776398  0.50000000  0.25776398 1
    0.25465839  0.50000000  0.25465839 1
    0.25155280  0.50000000  0.25155280 1
    0.24844720  0.50000000  0.24844720 1
    0.24534161  0.50000000  0.24534161 1
    0.24223602  0.50000000  0.24223602 1
    0.23913043  0.50000000  0.23913043 1
    0.23602484  0.50000000  0.23602484 1
    0.23291925  0.50000000  0.23291925 1
    0.22981366  0.50000000  0.22981366 1
    0.22670807  0.50000000  0.22670807 1
    0.22360248  0.50000000  0.22360248 1
    0.22049689  0.50000000  0.22049689 1
    0.21739130  0.50000000  0.21739130 1
    0.21428571  0.50000000  0.21428571 1
    0.21118012  0.50000000  0.21118012 1
    0.20807453  0.50000000  0.20807453 1
    0.20496894  0.50000000  0.20496894 1
    0.20186335  0.50000000  0.20186335 1
    0.19875776  0.50000000  0.19875776 1
    0.19565217  0.50000000  0.19565217 1
    0.19254658  0.50000000  0.19254658 1
    0.18944099  0.50000000  0.18944099 1
    0.18633540  0.50000000  0.18633540 1
    0.18322981  0.50000000  0.18322981 1
    0.18012422  0.50000000  0.18012422 1
    0.17701863  0.50000000  0.17701863 1
    0.17391304  0.50000000  0.17391304 1
    0.17080745  0.50000000  0.17080745 1
    0.16770186  0.50000000  0.16770186 1
    0.16459627  0.50000000  0.16459627 1
    0.16149068  0.50000000  0.16149068 1
    0.15838509  0.50000000  0.15838509 1
    0.15527950  0.50000000  0.15527950 1
    0.15217391  0.50000000  0.15217391 1
    0.14906832  0.50000000  0.14906832 1
    0.14596273  0.50000000  0.14596273 1
    0.14285714  0.50000000  0.14285714 1
    0.13975155  0.50000000  0.13975155 1
    0.13664596  0.50000000  0.13664596 1
    0.13354037  0.50000000  0.13354037 1
    0.13043478  0.50000000  0.13043478 1
    0.12732919  0.50000000  0.12732919 1
    0.12422360  0.50000000  0.12422360 1
    0.12111801  0.50000000  0.12111801 1
    0.11801242  0.50000000  0.11801242 1
    0.11490683  0.50000000  0.11490683 1
    0.11180124  0.50000000  0.11180124 1
    0.10869565  0.50000000  0.10869565 1