&CONTROL
  calculation = 'bands',
  prefix = 'nbti',
  pseudo_dir = '../../pseudo/',
  verbosity = 'low',
/
&SYSTEM
  degauss = 0.015,
  ecutrho = 340.0,
  ecutwfc = 85.0,
  ibrav = 0,
  nosym = .FALSE.,
  occupations = 'smearing',
  smearing = 'gauss',
  nat = 16,
  ntyp = 2,
  nbnd = 200,
/
&ELECTRONS
  conv_thr = 1d-10,
  electron_maxstep = 80,
  mixing_beta = 0.5,
  mixing_mode = 'local-TF',
/
&IONS
/
&CELL
/
ATOMIC_SPECIES
  Nb  92.9064 Nb.upf
  Ti  47.8670 Ti.upf
ATOMIC_POSITIONS crystal
  Ti 0.252095432400 0.747904412700 0.751745064000
  Ti 0.497904567600 0.502095587300 0.498254936000
  Ti 0.260950594200 0.739049657700 0.247083109200
  Ti 0.489049405800 0.510950342300 0.002916890800
  Ti 0.247757624400 0.249896806400 0.246138545900
  Ti -0.000102921600 0.497757273600 0.003861606900
  Ti 0.502242375600 0.000103193600 0.003861454100
  Ti 0.750102921600 0.752242726400 0.246138393100
  Nb 0.748183482300 0.251816624000 0.757786414000
  Nb 0.740020931500 0.259979728100 0.238845213300
  Nb 0.001816517700 -0.001816624000 0.492213586000
  Nb 0.009979068500 -0.009979728100 0.011154786700
  Nb 0.000928561000 0.500823653400 0.494921669400
  Nb 0.499176581000 -0.000928326000 0.494921751100
  Nb 0.250823419000 0.250928326000 0.755078248900
  Nb 0.749071439000 0.749176346600 0.755078330600
CELL_PARAMETERS angstrom
      4.9087863800      0.0144427260     -0.0055452740
     -1.6133154380      4.6361142180      0.0055457910
     -0.0088274660      0.0062513020      8.0556411430
K_POINTS crystal
402
    -0.37500000  0.37500000  0.00000000 1
    -0.38157895  0.38157895  0.00000000 1
    -0.38815789  0.38815789  0.00000000 1
    -0.39473684  0.39473684  0.00000000 1
    -0.40131579  0.40131579  0.00000000 1
    -0.40789474  0.40789474  0.00000000 1
    -0.41447368  0.41447368  0.00000000 1
    -0.42105263  0.42105263  0.00000000 1
    -0.42763158  0.42763158  0.00000000 1
    -0.43421053  0.43421053  0.00000000 1
    -0.44078947  0.44078947  0.00000000 1
    -0.44736842  0.44736842  0.00000000 1
    -0.45394737  0.45394737  0.00000000 1
    -0.46052632  0.46052632  0.00000000 1
    -0.46710526  0.46710526  0.00000000 1
    -0.47368421  0.47368421  0.00000000 1
    -0.48026316  0.48026316  0.00000000 1
    -0.48684211  0.48684211  0.00000000 1
    -0.49342105  0.49342105  0.00000000 1
    -0.50000000  0.50000000  0.00000000 1
    -0.49358974  0.49358974  0.00000000 1
    -0.48717949  0.48717949  0.00000000 1
    -0.48076923  0.48076923  0.00000000 1
    -0.47435897  0.47435897  0.00000000 1
    -0.46794872  0.46794872  0.00000000 1
    -0.46153846  0.46153846  0.00000000 1
    -0.45512821  0.45512821  0.00000000 1
    -0.44871795  0.44871795  0.00000000 1
    -0.44230769  0.44230769  0.00000000 1
    -0.43589744  0.43589744  0.00000000 1
    -0.42948718  0.42948718  0.00000000 1
    -0.42307692  0.42307692  0.00000000 1
    -0.41666667  0.41666667  0.00000000 1
    -0.41025641  0.41025641  0.00000000 1
    -0.40384615  0.40384615  0.00000000 1
    -0.39743590  0.39743590  0.00000000 1
    -0.39102564  0.39102564  0.00000000 1
    -0.38461538  0.38461538  0.00000000 1
    -0.37820513  0.37820513  0.00000000 1
    -0.37179487  0.37179487  0.00000000 1
    -0.36538462  0.36538462  0.00000000 1
    -0.35897436  0.35897436  0.00000000 1
    -0.35256410  0.35256410  0.00000000 1
    -0.34615385  0.34615385  0.00000000 1
    -0.33974359  0.33974359  0.00000000 1
    -0.33333333  0.33333333  0.00000000 1
    -0.32692308  0.32692308  0.00000000 1
    -0.32051282  0.32051282  0.00000000 1
    -0.31410256  0.31410256  0.00000000 1
    -0.30769231  0.30769231  0.00000000 1
    -0.30128205  0.30128205  0.00000000 1
    -0.29487179  0.29487179  0.00000000 1
    -0.28846154  0.28846154  0.00000000 1
    -0.28205128  0.28205128  0.00000000 1
    -0.27564103  0.27564103  0.00000000 1
    -0.26923077  0.26923077  0.00000000 1
    -0.26282051  0.26282051  0.00000000 1
    -0.25641026  0.25641026  0.00000000 1
    -0.25000000  0.25000000  0.00000000 1
    -0.24358974  0.24358974  0.00000000 1
    -0.23717949  0.23717949  0.00000000 1
    -0.23076923  0.23076923  0.00000000 1
    -0.22435897  0.22435897  0.00000000 1
    -0.21794872  0.21794872  0.00000000 1
    -0.21153846  0.21153846  0.00000000 1
    -0.20512821  0.20512821  0.00000000 1
    -0.19871795  0.19871795  0.00000000 1
    -0.19230769  0.19230769  0.00000000 1
    -0.18589744  0.18589744  0.00000000 1
    -0.17948718  0.17948718  0.00000000 1
    -0.17307692  0.17307692  0.00000000 1
    -0.16666667  0.16666667  0.00000000 1
    -0.16025641  0.16025641  0.00000000 1
    -0.15384615  0.15384615  0.00000000 1
    -0.14743590  0.14743590  0.00000000 1
    -0.14102564  0.14102564  0.00000000 1
    -0.13461538  0.13461538  0.00000000 1
    -0.12820513  0.12820513  0.00000000 1
    -0.12179487  0.12179487  0.00000000 1
    -0.11538462  0.11538462  0.00000000 1
    -0.10897436  0.10897436  0.00000000 1
    -0.10256410  0.10256410  0.00000000 1
    -0.09615385  0.09615385  0.00000000 1
    -0.08974359  0.08974359  0.00000000 1
    -0.08333333  0.08333333  0.00000000 1
    -0.07692308  0.07692308  0.00000000 1
    -0.07051282  0.07051282  0.00000000 1
    -0.06410256  0.06410256  0.00000000 1
    -0.05769231  0.05769231  0.00000000 1
    -0.05128205  0.05128205  0.00000000 1
    -0.04487179  0.04487179  0.00000000 1
    -0.03846154  0.03846154  0.00000000 1
    -0.03205128  0.03205128  0.00000000 1
    -0.02564103  0.02564103  0.00000000 1
    -0.01923077  0.01923077  0.00000000 1
    -0.01282051  0.01282051  0.00000000 1
    -0.00641026  0.00641026  0.00000000 1
    0.00000000  0.00000000  0.00000000 1
    -0.00574713  0.00574713  0.00574713 1
    -0.01149425  0.01149425  0.01149425 1
    -0.01724138  0.01724138  0.01724138 1
    -0.02298851  0.02298851  0.02298851 1
    -0.02873563  0.02873563  0.02873563 1
    -0.03448276  0.03448276  0.03448276 1
    -0.04022989  0.04022989  0.04022989 1
    -0.04597701  0.04597701  0.04597701 1
    -0.05172414  0.05172414  0.05172414 1
    -0.05747126  0.05747126  0.05747126 1
    -0.06321839  0.06321839  0.06321839 1
    -0.06896552  0.06896552  0.06896552 1
    -0.07471264  0.07471264  0.07471264 1
    -0.08045977  0.08045977  0.08045977 1
    -0.08620690  0.08620690  0.08620690 1
    -0.09195402  0.09195402  0.09195402 1
    -0.09770115  0.09770115  0.09770115 1
    -0.10344828  0.10344828  0.10344828 1
    -0.10919540  0.10919540  0.10919540 1
    -0.11494253  0.11494253  0.11494253 1
    -0.12068966  0.12068966  0.12068966 1
    -0.12643678  0.12643678  0.12643678 1
    -0.13218391  0.13218391  0.13218391 1
    -0.13793103  0.13793103  0.13793103 1
    -0.14367816  0.14367816  0.14367816 1
    -0.14942529  0.14942529  0.14942529 1
    -0.15517241  0.15517241  0.15517241 1
    -0.16091954  0.16091954  0.16091954 1
    -0.16666667  0.16666667  0.16666667 1
    -0.17241379  0.17241379  0.17241379 1
    -0.17816092  0.17816092  0.17816092 1
    -0.18390805  0.18390805  0.18390805 1
    -0.18965517  0.18965517  0.18965517 1
    -0.19540230  0.19540230  0.19540230 1
    -0.20114943  0.20114943  0.20114943 1
    -0.20689655  0.20689655  0.20689655 1
    -0.21264368  0.21264368  0.21264368 1
    -0.21839080  0.21839080  0.21839080 1
    -0.22413793  0.22413793  0.22413793 1
    -0.22988506  0.22988506  0.22988506 1
    -0.23563218  0.23563218  0.23563218 1
    -0.24137931  0.24137931  0.24137931 1
    -0.24712644  0.24712644  0.24712644 1
    -0.25287356  0.25287356  0.25287356 1
    -0.25862069  0.25862069  0.25862069 1
    -0.26436782  0.26436782  0.26436782 1
    -0.27011494  0.27011494  0.27011494 1
    -0.27586207  0.27586207  0.27586207 1
    -0.28160920  0.28160920  0.28160920 1
    -0.28735632  0.28735632  0.28735632 1
    -0.29310345  0.29310345  0.29310345 1
    -0.29885057  0.29885057  0.29885057 1
    -0.30459770  0.30459770  0.30459770 1
    -0.31034483  0.31034483  0.31034483 1
    -0.31609195  0.31609195  0.31609195 1
    -0.32183908  0.32183908  0.32183908 1
    -0.32758621  0.32758621  0.32758621 1
    -0.33333333  0.33333333  0.33333333 1
    -0.33908046  0.33908046  0.33908046 1
    -0.34482759  0.34482759  0.34482759 1
    -0.35057471  0.35057471  0.35057471 1
    -0.35632184  0.35632184  0.35632184 1
    -0.36206897  0.36206897  0.36206897 1
    -0.36781609  0.36781609  0.36781609 1
    -0.37356322  0.37356322  0.37356322 1
    -0.37931034  0.37931034  0.37931034 1
    -0.38505747  0.38505747  0.38505747 1
    -0.39080460  0.39080460  0.39080460 1
    -0.39655172  0.39655172  0.39655172 1
    -0.40229885  0.40229885  0.40229885 1
    -0.40804598  0.40804598  0.40804598 1
    -0.41379310  0.41379310  0.41379310 1
    -0.41954023  0.41954023  0.41954023 1
    -0.42528736  0.42528736  0.42528736 1
    -0.43103448  0.43103448  0.43103448 1
    -0.43678161  0.43678161  0.43678161 1
    -0.44252874  0.44252874  0.44252874 1
    -0.44827586  0.44827586  0.44827586 1
    -0.45402299  0.45402299  0.45402299 1
    -0.45977011  0.45977011  0.45977011 1
    -0.46551724  0.46551724  0.46551724 1
    -0.47126437  0.47126437  0.47126437 1
    -0.47701149  0.47701149  0.47701149 1
    -0.48275862  0.48275862  0.48275862 1
    -0.48850575  0.48850575  0.48850575 1
    -0.49425287  0.49425287  0.49425287 1
    -0.50000000  0.50000000  0.50000000 1
    -0.49537037  0.50462963  0.50000000 1
    -0.49074074  0.50925926  0.50000000 1
    -0.48611111  0.51388889  0.50000000 1
    -0.48148148  0.51851852  0.50000000 1
    -0.47685185  0.52314815  0.50000000 1
    -0.47222222  0.52777778  0.50000000 1
    -0.46759259  0.53240741  0.50000000 1
    -0.46296296  0.53703704  0.50000000 1
    -0.45833333  0.54166667  0.50000000 1
    -0.45370370  0.54629630  0.50000000 1
    -0.44907407  0.55092593  0.50000000 1
    -0.44444444  0.55555556  0.50000000 1
    -0.43981481  0.56018519  0.50000000 1
    -0.43518519  0.56481481  0.50000000 1
    -0.43055556  0.56944444  0.50000000 1
    -0.42592593  0.57407407  0.50000000 1
    -0.42129630  0.57870370  0.50000000 1
    -0.41666667  0.58333333  0.50000000 1
    -0.41203704  0.58796296  0.50000000 1
    -0.40740741  0.59259259  0.50000000 1
    -0.40277778  0.59722222  0.50000000 1
    -0.39814815  0.60185185  0.50000000 1
    -0.39351852  0.60648148  0.50000000 1
    -0.38888889  0.61111111  0.50000000 1
    -0.38425926  0.61574074  0.50000000 1
    -0.37962963  0.62037037  0.50000000 1
    -0.37500000  0.62500000  0.50000000 1
    -0.36702128  0.62234043  0.50000000 1
    -0.35904255  0.61968085  0.50000000 1
    -0.35106383  0.61702128  0.50000000 1
    -0.34308511  0.61436170  0.50000000 1
    -0.33510638  0.61170213  0.50000000 1
    -0.32712766  0.60904255  0.50000000 1
    -0.31914894  0.60638298  0.50000000 1
    -0.31117021  0.60372340  0.50000000 1
    -0.30319149  0.60106383  0.50000000 1
    -0.29521277  0.59840426  0.50000000 1
    -0.28723404  0.59574468  0.50000000 1
    -0.27925532  0.59308511  0.50000000 1
    -0.27127660  0.59042553  0.50000000 1
    -0.26329787  0.58776596  0.50000000 1
    -0.25531915  0.58510638  0.50000000 1
    -0.24734043  0.58244681  0.50000000 1
    -0.23936170  0.57978723  0.50000000 1
    -0.23138298  0.57712766  0.50000000 1
    -0.22340426  0.57446809  0.50000000 1
    -0.21542553  0.57180851  0.50000000 1
    -0.20744681  0.56914894  0.50000000 1
    -0.19946809  0.56648936  0.50000000 1
    -0.19148936  0.56382979  0.50000000 1
    -0.18351064  0.56117021  0.50000000 1
    -0.17553191  0.55851064  0.50000000 1
    -0.16755319  0.55585106  0.50000000 1
    -0.15957447  0.55319149  0.50000000 1
    -0.15159574  0.55053191  0.50000000 1
    -0.14361702  0.54787234  0.50000000 1
    -0.13563830  0.54521277  0.50000000 1
    -0.12765957  0.54255319  0.50000000 1
    -0.11968085  0.53989362  0.50000000 1
    -0.11170213  0.53723404  0.50000000 1
    -0.10372340  0.53457447  0.50000000 1
    -0.09574468  0.53191489  0.50000000 1
    -0.08776596  0.52925532  0.50000000 1
    -0.07978723  0.52659574  0.50000000 1
    -0.07180851  0.52393617  0.50000000 1
    -0.06382979  0.52127660  0.50000000 1
    -0.05585106  0.51861702  0.50000000 1
    -0.04787234  0.51595745  0.50000000 1
    -0.03989362  0.51329787  0.50000000 1
    -0.03191489  0.51063830  0.50000000 1
    -0.02393617  0.50797872  0.50000000 1
    -0.01595745  0.50531915  0.50000000 1
    -0.00797872  0.50265957  0.50000000 1
    0.00000000  0.50000000  0.50000000 1
    0.00000000  0.50000000  0.48684211 1
    0.00000000  0.50000000  0.47368421 1
    0.00000000  0.50000000  0.46052632 1
    0.00000000  0.50000000  0.44736842 1
    0.00000000  0.50000000  0.43421053 1
    0.00000000  0.50000000  0.42105263 1
    0.00000000  0.50000000  0.40789474 1
    0.00000000  0.50000000  0.39473684 1
    0.00000000  0.50000000  0.38157895 1
    0.00000000  0.50000000  0.36842105 1
    0.00000000  0.50000000  0.35526316 1
    0.00000000  0.50000000  0.34210526 1
    0.00000000  0.50000000  0.32894737 1
    0.00000000  0.50000000  0.31578947 1
    0.00000000  0.50000000  0.30263158 1
    0.00000000  0.50000000  0.28947368 1
    0.00000000  0.50000000  0.27631579 1
    0.00000000  0.50000000  0.26315789 1
    0.00000000  0.50000000  0.25000000 1
    0.00000000  0.50000000  0.23684211 1
    0.00000000  0.50000000  0.22368421 1
    0.00000000  0.50000000  0.21052632 1
    0.00000000  0.50000000  0.19736842 1
    0.00000000  0.50000000  0.18421053 1
    0.00000000  0.50000000  0.17105263 1
    0.00000000  0.50000000  0.15789474 1
    0.00000000  0.50000000  0.14473684 1
    0.00000000  0.50000000  0.13157895 1
    0.00000000  0.50000000  0.11842105 1
    0.00000000  0.50000000  0.10526316 1
    0.00000000  0.50000000  0.09210526 1
    0.00000000  0.50000000  0.07894737 1
    0.00000000  0.50000000  0.06578947 1
    0.00000000  0.50000000  0.05263158 1
    0.00000000  0.50000000  0.03947368 1
    0.00000000  0.50000000  0.02631579 1
    0.00000000  0.50000000  0.01315789 1
    0.00000000  0.50000000  0.00000000 1
    0.00000000  0.49253731  0.00000000 1
    0.00000000  0.48507463  0.00000000 1
    0.00000000  0.47761194  0.00000000 1
    0.00000000  0.47014925  0.00000000 1
    0.00000000  0.46268657  0.00000000 1
    0.00000000  0.45522388  0.00000000 1
    0.00000000  0.44776119  0.00000000 1
    0.00000000  0.44029851  0.00000000 1
    0.00000000  0.43283582  0.00000000 1
    0.00000000  0.42537313  0.00000000 1
    0.00000000  0.41791045  0.00000000 1
    0.00000000  0.41044776  0.00000000 1
    0.00000000  0.40298507  0.00000000 1
    0.00000000  0.39552239  0.00000000 1
    0.00000000  0.38805970  0.00000000 1
    0.00000000  0.38059701  0.00000000 1
    0.00000000  0.37313433  0.00000000 1
    0.00000000  0.36567164  0.00000000 1
    0.00000000  0.35820896  0.00000000 1
    0.00000000  0.35074627  0.00000000 1
    0.00000000  0.34328358  0.00000000 1
    0.00000000  0.33582090  0.00000000 1
    0.00000000  0.32835821  0.00000000 1
    0.00000000  0.32089552  0.00000000 1
    0.00000000  0.31343284  0.00000000 1
    0.00000000  0.30597015  0.00000000 1
    0.00000000  0.29850746  0.00000000 1
    0.00000000  0.29104478  0.00000000 1
    0.00000000  0.28358209  0.00000000 1
    0.00000000  0.27611940  0.00000000 1
    0.00000000  0.26865672  0.00000000 1
    0.00000000  0.26119403  0.00000000 1
    0.00000000  0.25373134  0.00000000 1
    0.00000000  0.24626866  0.00000000 1
    0.00000000  0.23880597  0.00000000 1
    0.00000000  0.23134328  0.00000000 1
    0.00000000  0.22388060  0.00000000 1
    0.00000000  0.21641791  0.00000000 1
    0.00000000  0.20895522  0.00000000 1
    0.00000000  0.20149254  0.00000000 1
    0.00000000  0.19402985  0.00000000 1
    0.00000000  0.18656716  0.00000000 1
    0.00000000  0.17910448  0.00000000 1
    0.00000000  0.17164179  0.00000000 1
    0.00000000  0.16417910  0.00000000 1
    0.00000000  0.15671642  0.00000000 1
    0.00000000  0.14925373  0.00000000 1
    0.00000000  0.14179104  0.00000000 1
    0.00000000  0.13432836  0.00000000 1
    0.00000000  0.12686567  0.00000000 1
    0.00000000  0.11940299  0.00000000 1
    0.00000000  0.11194030  0.00000000 1
    0.00000000  0.10447761  0.00000000 1
    0.00000000  0.09701493  0.00000000 1
    0.00000000  0.08955224  0.00000000 1
    0.00000000  0.08208955  0.00000000 1
    0.00000000  0.07462687  0.00000000 1
    0.00000000  0.06716418  0.00000000 1
    0.00000000  0.05970149  0.00000000 1
    0.00000000  0.05223881  0.00000000 1
    0.00000000  0.04477612  0.00000000 1
    0.00000000  0.03731343  0.00000000 1
    0.00000000  0.02985075  0.00000000 1
    0.00000000  0.02238806  0.00000000 1
    0.00000000  0.01492537  0.00000000 1
    0.00000000  0.00746269  0.00000000 1
    0.00000000  0.00000000  0.00000000 1
    0.00000000  0.00000000  0.01315789 1
    0.00000000  0.00000000  0.02631579 1
    0.00000000  0.00000000  0.03947368 1
    0.00000000  0.00000000  0.05263158 1
    0.00000000  0.00000000  0.06578947 1
    0.00000000  0.00000000  0.07894737 1
    0.00000000  0.00000000  0.09210526 1
    0.00000000  0.00000000  0.10526316 1
    0.00000000  0.00000000  0.11842105 1
    0.00000000  0.00000000  0.13157895 1
    0.00000000  0.00000000  0.14473684 1
    0.00000000  0.00000000  0.15789474 1
    0.00000000  0.00000000  0.17105263 1
    0.00000000  0.00000000  0.18421053 1
    0.00000000  0.00000000  0.19736842 1
    0.00000000  0.00000000  0.21052632 1
    0.00000000  0.00000000  0.22368421 1
    0.00000000  0.00000000  0.23684211 1
    0.00000000  0.00000000  0.25000000 1
    0.00000000  0.00000000  0.26315789 1
    0.00000000  0.00000000  0.27631579 1
    0.00000000  0.00000000  0.28947368 1
    0.00000000  0.00000000  0.30263158 1
    0.00000000  0.00000000  0.31578947 1
    0.00000000  0.00000000  0.32894737 1
    0.00000000  0.00000000  0.34210526 1
    0.00000000  0.00000000  0.35526316 1
    0.00000000  0.00000000  0.36842105 1
    0.00000000  0.00000000  0.38157895 1
    0.00000000  0.00000000  0.39473684 1
    0.00000000  0.00000000  0.40789474 1
    0.00000000  0.00000000  0.42105263 1
    0.00000000  0.00000000  0.43421053 1
    0.00000000  0.00000000  0.44736842 1
    0.00000000  0.00000000  0.46052632 1
    0.00000000  0.00000000  0.47368421 1
    0.00000000  0.00000000  0.48684211 1
    0.00000000  0.00000000  0.50000000 1
