&CONTROL
  calculation = 'scf',
  prefix = 'hea',
  pseudo_dir = '../../pseudo/',
  tprnfor = .TRUE.,
  tstress = .TRUE.,
  verbosity = 'low',
/
&SYSTEM
  degauss = 0.015,
  ecutrho = 340.0,
  ecutwfc = 85.0,
  ibrav = 0,
  nosym = .FALSE.,
  occupations = 'smearing',
  smearing = 'gauss',
  nat = 20,
  ntyp = 5,
/
&ELECTRONS
  conv_thr = 1d-10,
  diago_david_ndim = 8,
  electron_maxstep = 80,
  mixing_beta = 0.5,
  mixing_mode = 'local-TF',
/
&IONS
/
&CELL
/
ATOMIC_SPECIES
  Hf  178.4900 Hf.upf
  Nb  92.9064 Nb.upf
  Ta  180.9479 Ta.upf
  Ti  47.8670 Ti.upf
  Zr  91.2240 Zr.upf
ATOMIC_POSITIONS crystal
Hf            0.6013385062        0.6013384230        0.9004001286
Hf            0.3971428654        0.3971427722        0.8442633205
Zr            0.5994115774        0.5994116306        0.1480113105
Zr            0.8066694012        0.8066694876        0.4602969771
Ta            0.7970354619        0.7970355379        0.1967076700
Ta            0.3979414143        0.3979414431        0.1012913259
Ta            0.6006431844        0.6006432514        0.4011756562
Ta            0.2046316952        0.2046317932        0.3022873810
Ta            0.0005213944        0.0005214654        0.2511434009
Ta           -0.0016748983	 -0.0016749928        0.7511308646
Ta            0.8023845792        0.8023845389        0.9490615012
Ti            0.4003703293        0.4003702990        0.5965030769
Ti            0.1995641573        0.1995641530        0.0466467151
Nb            0.7969970654        0.7969969753        0.6970334208
Nb            0.0051989472        0.0051989110        0.0033403721
Nb           -0.0014377230	 -0.0014376874        0.5001440488
Nb            0.1967847982        0.1967847147        0.8007009043
Nb            0.3990353271        0.3990354164        0.3486189749
Nb            0.2002835205        0.2002835186        0.5525035316
Nb            0.5971583967        0.5971583486        0.6487394189
K_POINTS automatic
  9 9 4 0 0 0
CELL_PARAMETERS angstrom
   6.345705814   0.001261344  -3.407785354
   4.977590202   3.935932839  -3.407787103
  -0.012124910  -0.004211629  10.180940054
