&CONTROL
  calculation = 'scf',
  prefix = 'nbti',
  pseudo_dir = '../../pseudo/',
  tprnfor = .TRUE.,
  tstress = .TRUE.,
  verbosity = 'low',
/
&SYSTEM
  degauss = 0.015,
  ecutrho = 340.0,
  ecutwfc = 85.0,
  ibrav = 0,
  nbnd = 200,
  nosym = .FALSE.,
  occupations = 'smearing',
  smearing = 'gauss',
  nat = 16,
  ntyp = 2,
/
&ELECTRONS
  conv_thr = 1d-10,
  electron_maxstep = 80,
  mixing_beta = 0.7,
  mixing_mode = 'local-TF',
/
&IONS
/
&CELL
/
ATOMIC_SPECIES
  Nb  92.9064 Nb.upf
  Ti  47.8670 Ti.upf
ATOMIC_POSITIONS crystal
  Ti 0.252095432400 0.747904412700 0.751745064000
  Ti 0.497904567600 0.502095587300 0.498254936000
  Ti 0.260950594200 0.739049657700 0.247083109200
  Ti 0.489049405800 0.510950342300 0.002916890800
  Ti 0.247757624400 0.249896806400 0.246138545900
  Ti -0.000102921600 0.497757273600 0.003861606900
  Ti 0.502242375600 0.000103193600 0.003861454100
  Ti 0.750102921600 0.752242726400 0.246138393100
  Nb 0.748183482300 0.251816624000 0.757786414000
  Nb 0.740020931500 0.259979728100 0.238845213300
  Nb 0.001816517700 -0.001816624000 0.492213586000
  Nb 0.009979068500 -0.009979728100 0.011154786700
  Nb 0.000928561000 0.500823653400 0.494921669400
  Nb 0.499176581000 -0.000928326000 0.494921751100
  Nb 0.250823419000 0.250928326000 0.755078248900
  Nb 0.749071439000 0.749176346600 0.755078330600
CELL_PARAMETERS angstrom
      4.9087863800      0.0144427260     -0.0055452740
     -1.6133154380      4.6361142180      0.0055457910
     -0.0088274660      0.0062513020      8.0556411430
K_POINTS crystal
486
  0.00000000  0.00000000  0.00000000  2.0576e-03
  0.00000000  0.00000000  0.16666667  2.0576e-03
  0.00000000  0.00000000  0.33333333  2.0576e-03
  0.00000000  0.00000000  0.50000000  2.0576e-03
  0.00000000  0.00000000  0.66666667  2.0576e-03
  0.00000000  0.00000000  0.83333333  2.0576e-03
  0.00000000  0.11111111  0.00000000  2.0576e-03
  0.00000000  0.11111111  0.16666667  2.0576e-03
  0.00000000  0.11111111  0.33333333  2.0576e-03
  0.00000000  0.11111111  0.50000000  2.0576e-03
  0.00000000  0.11111111  0.66666667  2.0576e-03
  0.00000000  0.11111111  0.83333333  2.0576e-03
  0.00000000  0.22222222  0.00000000  2.0576e-03
  0.00000000  0.22222222  0.16666667  2.0576e-03
  0.00000000  0.22222222  0.33333333  2.0576e-03
  0.00000000  0.22222222  0.50000000  2.0576e-03
  0.00000000  0.22222222  0.66666667  2.0576e-03
  0.00000000  0.22222222  0.83333333  2.0576e-03
  0.00000000  0.33333333  0.00000000  2.0576e-03
  0.00000000  0.33333333  0.16666667  2.0576e-03
  0.00000000  0.33333333  0.33333333  2.0576e-03
  0.00000000  0.33333333  0.50000000  2.0576e-03
  0.00000000  0.33333333  0.66666667  2.0576e-03
  0.00000000  0.33333333  0.83333333  2.0576e-03
  0.00000000  0.44444444  0.00000000  2.0576e-03
  0.00000000  0.44444444  0.16666667  2.0576e-03
  0.00000000  0.44444444  0.33333333  2.0576e-03
  0.00000000  0.44444444  0.50000000  2.0576e-03
  0.00000000  0.44444444  0.66666667  2.0576e-03
  0.00000000  0.44444444  0.83333333  2.0576e-03
  0.00000000  0.55555556  0.00000000  2.0576e-03
  0.00000000  0.55555556  0.16666667  2.0576e-03
  0.00000000  0.55555556  0.33333333  2.0576e-03
  0.00000000  0.55555556  0.50000000  2.0576e-03
  0.00000000  0.55555556  0.66666667  2.0576e-03
  0.00000000  0.55555556  0.83333333  2.0576e-03
  0.00000000  0.66666667  0.00000000  2.0576e-03
  0.00000000  0.66666667  0.16666667  2.0576e-03
  0.00000000  0.66666667  0.33333333  2.0576e-03
  0.00000000  0.66666667  0.50000000  2.0576e-03
  0.00000000  0.66666667  0.66666667  2.0576e-03
  0.00000000  0.66666667  0.83333333  2.0576e-03
  0.00000000  0.77777778  0.00000000  2.0576e-03
  0.00000000  0.77777778  0.16666667  2.0576e-03
  0.00000000  0.77777778  0.33333333  2.0576e-03
  0.00000000  0.77777778  0.50000000  2.0576e-03
  0.00000000  0.77777778  0.66666667  2.0576e-03
  0.00000000  0.77777778  0.83333333  2.0576e-03
  0.00000000  0.88888889  0.00000000  2.0576e-03
  0.00000000  0.88888889  0.16666667  2.0576e-03
  0.00000000  0.88888889  0.33333333  2.0576e-03
  0.00000000  0.88888889  0.50000000  2.0576e-03
  0.00000000  0.88888889  0.66666667  2.0576e-03
  0.00000000  0.88888889  0.83333333  2.0576e-03
  0.11111111  0.00000000  0.00000000  2.0576e-03
  0.11111111  0.00000000  0.16666667  2.0576e-03
  0.11111111  0.00000000  0.33333333  2.0576e-03
  0.11111111  0.00000000  0.50000000  2.0576e-03
  0.11111111  0.00000000  0.66666667  2.0576e-03
  0.11111111  0.00000000  0.83333333  2.0576e-03
  0.11111111  0.11111111  0.00000000  2.0576e-03
  0.11111111  0.11111111  0.16666667  2.0576e-03
  0.11111111  0.11111111  0.33333333  2.0576e-03
  0.11111111  0.11111111  0.50000000  2.0576e-03
  0.11111111  0.11111111  0.66666667  2.0576e-03
  0.11111111  0.11111111  0.83333333  2.0576e-03
  0.11111111  0.22222222  0.00000000  2.0576e-03
  0.11111111  0.22222222  0.16666667  2.0576e-03
  0.11111111  0.22222222  0.33333333  2.0576e-03
  0.11111111  0.22222222  0.50000000  2.0576e-03
  0.11111111  0.22222222  0.66666667  2.0576e-03
  0.11111111  0.22222222  0.83333333  2.0576e-03
  0.11111111  0.33333333  0.00000000  2.0576e-03
  0.11111111  0.33333333  0.16666667  2.0576e-03
  0.11111111  0.33333333  0.33333333  2.0576e-03
  0.11111111  0.33333333  0.50000000  2.0576e-03
  0.11111111  0.33333333  0.66666667  2.0576e-03
  0.11111111  0.33333333  0.83333333  2.0576e-03
  0.11111111  0.44444444  0.00000000  2.0576e-03
  0.11111111  0.44444444  0.16666667  2.0576e-03
  0.11111111  0.44444444  0.33333333  2.0576e-03
  0.11111111  0.44444444  0.50000000  2.0576e-03
  0.11111111  0.44444444  0.66666667  2.0576e-03
  0.11111111  0.44444444  0.83333333  2.0576e-03
  0.11111111  0.55555556  0.00000000  2.0576e-03
  0.11111111  0.55555556  0.16666667  2.0576e-03
  0.11111111  0.55555556  0.33333333  2.0576e-03
  0.11111111  0.55555556  0.50000000  2.0576e-03
  0.11111111  0.55555556  0.66666667  2.0576e-03
  0.11111111  0.55555556  0.83333333  2.0576e-03
  0.11111111  0.66666667  0.00000000  2.0576e-03
  0.11111111  0.66666667  0.16666667  2.0576e-03
  0.11111111  0.66666667  0.33333333  2.0576e-03
  0.11111111  0.66666667  0.50000000  2.0576e-03
  0.11111111  0.66666667  0.66666667  2.0576e-03
  0.11111111  0.66666667  0.83333333  2.0576e-03
  0.11111111  0.77777778  0.00000000  2.0576e-03
  0.11111111  0.77777778  0.16666667  2.0576e-03
  0.11111111  0.77777778  0.33333333  2.0576e-03
  0.11111111  0.77777778  0.50000000  2.0576e-03
  0.11111111  0.77777778  0.66666667  2.0576e-03
  0.11111111  0.77777778  0.83333333  2.0576e-03
  0.11111111  0.88888889  0.00000000  2.0576e-03
  0.11111111  0.88888889  0.16666667  2.0576e-03
  0.11111111  0.88888889  0.33333333  2.0576e-03
  0.11111111  0.88888889  0.50000000  2.0576e-03
  0.11111111  0.88888889  0.66666667  2.0576e-03
  0.11111111  0.88888889  0.83333333  2.0576e-03
  0.22222222  0.00000000  0.00000000  2.0576e-03
  0.22222222  0.00000000  0.16666667  2.0576e-03
  0.22222222  0.00000000  0.33333333  2.0576e-03
  0.22222222  0.00000000  0.50000000  2.0576e-03
  0.22222222  0.00000000  0.66666667  2.0576e-03
  0.22222222  0.00000000  0.83333333  2.0576e-03
  0.22222222  0.11111111  0.00000000  2.0576e-03
  0.22222222  0.11111111  0.16666667  2.0576e-03
  0.22222222  0.11111111  0.33333333  2.0576e-03
  0.22222222  0.11111111  0.50000000  2.0576e-03
  0.22222222  0.11111111  0.66666667  2.0576e-03
  0.22222222  0.11111111  0.83333333  2.0576e-03
  0.22222222  0.22222222  0.00000000  2.0576e-03
  0.22222222  0.22222222  0.16666667  2.0576e-03
  0.22222222  0.22222222  0.33333333  2.0576e-03
  0.22222222  0.22222222  0.50000000  2.0576e-03
  0.22222222  0.22222222  0.66666667  2.0576e-03
  0.22222222  0.22222222  0.83333333  2.0576e-03
  0.22222222  0.33333333  0.00000000  2.0576e-03
  0.22222222  0.33333333  0.16666667  2.0576e-03
  0.22222222  0.33333333  0.33333333  2.0576e-03
  0.22222222  0.33333333  0.50000000  2.0576e-03
  0.22222222  0.33333333  0.66666667  2.0576e-03
  0.22222222  0.33333333  0.83333333  2.0576e-03
  0.22222222  0.44444444  0.00000000  2.0576e-03
  0.22222222  0.44444444  0.16666667  2.0576e-03
  0.22222222  0.44444444  0.33333333  2.0576e-03
  0.22222222  0.44444444  0.50000000  2.0576e-03
  0.22222222  0.44444444  0.66666667  2.0576e-03
  0.22222222  0.44444444  0.83333333  2.0576e-03
  0.22222222  0.55555556  0.00000000  2.0576e-03
  0.22222222  0.55555556  0.16666667  2.0576e-03
  0.22222222  0.55555556  0.33333333  2.0576e-03
  0.22222222  0.55555556  0.50000000  2.0576e-03
  0.22222222  0.55555556  0.66666667  2.0576e-03
  0.22222222  0.55555556  0.83333333  2.0576e-03
  0.22222222  0.66666667  0.00000000  2.0576e-03
  0.22222222  0.66666667  0.16666667  2.0576e-03
  0.22222222  0.66666667  0.33333333  2.0576e-03
  0.22222222  0.66666667  0.50000000  2.0576e-03
  0.22222222  0.66666667  0.66666667  2.0576e-03
  0.22222222  0.66666667  0.83333333  2.0576e-03
  0.22222222  0.77777778  0.00000000  2.0576e-03
  0.22222222  0.77777778  0.16666667  2.0576e-03
  0.22222222  0.77777778  0.33333333  2.0576e-03
  0.22222222  0.77777778  0.50000000  2.0576e-03
  0.22222222  0.77777778  0.66666667  2.0576e-03
  0.22222222  0.77777778  0.83333333  2.0576e-03
  0.22222222  0.88888889  0.00000000  2.0576e-03
  0.22222222  0.88888889  0.16666667  2.0576e-03
  0.22222222  0.88888889  0.33333333  2.0576e-03
  0.22222222  0.88888889  0.50000000  2.0576e-03
  0.22222222  0.88888889  0.66666667  2.0576e-03
  0.22222222  0.88888889  0.83333333  2.0576e-03
  0.33333333  0.00000000  0.00000000  2.0576e-03
  0.33333333  0.00000000  0.16666667  2.0576e-03
  0.33333333  0.00000000  0.33333333  2.0576e-03
  0.33333333  0.00000000  0.50000000  2.0576e-03
  0.33333333  0.00000000  0.66666667  2.0576e-03
  0.33333333  0.00000000  0.83333333  2.0576e-03
  0.33333333  0.11111111  0.00000000  2.0576e-03
  0.33333333  0.11111111  0.16666667  2.0576e-03
  0.33333333  0.11111111  0.33333333  2.0576e-03
  0.33333333  0.11111111  0.50000000  2.0576e-03
  0.33333333  0.11111111  0.66666667  2.0576e-03
  0.33333333  0.11111111  0.83333333  2.0576e-03
  0.33333333  0.22222222  0.00000000  2.0576e-03
  0.33333333  0.22222222  0.16666667  2.0576e-03
  0.33333333  0.22222222  0.33333333  2.0576e-03
  0.33333333  0.22222222  0.50000000  2.0576e-03
  0.33333333  0.22222222  0.66666667  2.0576e-03
  0.33333333  0.22222222  0.83333333  2.0576e-03
  0.33333333  0.33333333  0.00000000  2.0576e-03
  0.33333333  0.33333333  0.16666667  2.0576e-03
  0.33333333  0.33333333  0.33333333  2.0576e-03
  0.33333333  0.33333333  0.50000000  2.0576e-03
  0.33333333  0.33333333  0.66666667  2.0576e-03
  0.33333333  0.33333333  0.83333333  2.0576e-03
  0.33333333  0.44444444  0.00000000  2.0576e-03
  0.33333333  0.44444444  0.16666667  2.0576e-03
  0.33333333  0.44444444  0.33333333  2.0576e-03
  0.33333333  0.44444444  0.50000000  2.0576e-03
  0.33333333  0.44444444  0.66666667  2.0576e-03
  0.33333333  0.44444444  0.83333333  2.0576e-03
  0.33333333  0.55555556  0.00000000  2.0576e-03
  0.33333333  0.55555556  0.16666667  2.0576e-03
  0.33333333  0.55555556  0.33333333  2.0576e-03
  0.33333333  0.55555556  0.50000000  2.0576e-03
  0.33333333  0.55555556  0.66666667  2.0576e-03
  0.33333333  0.55555556  0.83333333  2.0576e-03
  0.33333333  0.66666667  0.00000000  2.0576e-03
  0.33333333  0.66666667  0.16666667  2.0576e-03
  0.33333333  0.66666667  0.33333333  2.0576e-03
  0.33333333  0.66666667  0.50000000  2.0576e-03
  0.33333333  0.66666667  0.66666667  2.0576e-03
  0.33333333  0.66666667  0.83333333  2.0576e-03
  0.33333333  0.77777778  0.00000000  2.0576e-03
  0.33333333  0.77777778  0.16666667  2.0576e-03
  0.33333333  0.77777778  0.33333333  2.0576e-03
  0.33333333  0.77777778  0.50000000  2.0576e-03
  0.33333333  0.77777778  0.66666667  2.0576e-03
  0.33333333  0.77777778  0.83333333  2.0576e-03
  0.33333333  0.88888889  0.00000000  2.0576e-03
  0.33333333  0.88888889  0.16666667  2.0576e-03
  0.33333333  0.88888889  0.33333333  2.0576e-03
  0.33333333  0.88888889  0.50000000  2.0576e-03
  0.33333333  0.88888889  0.66666667  2.0576e-03
  0.33333333  0.88888889  0.83333333  2.0576e-03
  0.44444444  0.00000000  0.00000000  2.0576e-03
  0.44444444  0.00000000  0.16666667  2.0576e-03
  0.44444444  0.00000000  0.33333333  2.0576e-03
  0.44444444  0.00000000  0.50000000  2.0576e-03
  0.44444444  0.00000000  0.66666667  2.0576e-03
  0.44444444  0.00000000  0.83333333  2.0576e-03
  0.44444444  0.11111111  0.00000000  2.0576e-03
  0.44444444  0.11111111  0.16666667  2.0576e-03
  0.44444444  0.11111111  0.33333333  2.0576e-03
  0.44444444  0.11111111  0.50000000  2.0576e-03
  0.44444444  0.11111111  0.66666667  2.0576e-03
  0.44444444  0.11111111  0.83333333  2.0576e-03
  0.44444444  0.22222222  0.00000000  2.0576e-03
  0.44444444  0.22222222  0.16666667  2.0576e-03
  0.44444444  0.22222222  0.33333333  2.0576e-03
  0.44444444  0.22222222  0.50000000  2.0576e-03
  0.44444444  0.22222222  0.66666667  2.0576e-03
  0.44444444  0.22222222  0.83333333  2.0576e-03
  0.44444444  0.33333333  0.00000000  2.0576e-03
  0.44444444  0.33333333  0.16666667  2.0576e-03
  0.44444444  0.33333333  0.33333333  2.0576e-03
  0.44444444  0.33333333  0.50000000  2.0576e-03
  0.44444444  0.33333333  0.66666667  2.0576e-03
  0.44444444  0.33333333  0.83333333  2.0576e-03
  0.44444444  0.44444444  0.00000000  2.0576e-03
  0.44444444  0.44444444  0.16666667  2.0576e-03
  0.44444444  0.44444444  0.33333333  2.0576e-03
  0.44444444  0.44444444  0.50000000  2.0576e-03
  0.44444444  0.44444444  0.66666667  2.0576e-03
  0.44444444  0.44444444  0.83333333  2.0576e-03
  0.44444444  0.55555556  0.00000000  2.0576e-03
  0.44444444  0.55555556  0.16666667  2.0576e-03
  0.44444444  0.55555556  0.33333333  2.0576e-03
  0.44444444  0.55555556  0.50000000  2.0576e-03
  0.44444444  0.55555556  0.66666667  2.0576e-03
  0.44444444  0.55555556  0.83333333  2.0576e-03
  0.44444444  0.66666667  0.00000000  2.0576e-03
  0.44444444  0.66666667  0.16666667  2.0576e-03
  0.44444444  0.66666667  0.33333333  2.0576e-03
  0.44444444  0.66666667  0.50000000  2.0576e-03
  0.44444444  0.66666667  0.66666667  2.0576e-03
  0.44444444  0.66666667  0.83333333  2.0576e-03
  0.44444444  0.77777778  0.00000000  2.0576e-03
  0.44444444  0.77777778  0.16666667  2.0576e-03
  0.44444444  0.77777778  0.33333333  2.0576e-03
  0.44444444  0.77777778  0.50000000  2.0576e-03
  0.44444444  0.77777778  0.66666667  2.0576e-03
  0.44444444  0.77777778  0.83333333  2.0576e-03
  0.44444444  0.88888889  0.00000000  2.0576e-03
  0.44444444  0.88888889  0.16666667  2.0576e-03
  0.44444444  0.88888889  0.33333333  2.0576e-03
  0.44444444  0.88888889  0.50000000  2.0576e-03
  0.44444444  0.88888889  0.66666667  2.0576e-03
  0.44444444  0.88888889  0.83333333  2.0576e-03
  0.55555556  0.00000000  0.00000000  2.0576e-03
  0.55555556  0.00000000  0.16666667  2.0576e-03
  0.55555556  0.00000000  0.33333333  2.0576e-03
  0.55555556  0.00000000  0.50000000  2.0576e-03
  0.55555556  0.00000000  0.66666667  2.0576e-03
  0.55555556  0.00000000  0.83333333  2.0576e-03
  0.55555556  0.11111111  0.00000000  2.0576e-03
  0.55555556  0.11111111  0.16666667  2.0576e-03
  0.55555556  0.11111111  0.33333333  2.0576e-03
  0.55555556  0.11111111  0.50000000  2.0576e-03
  0.55555556  0.11111111  0.66666667  2.0576e-03
  0.55555556  0.11111111  0.83333333  2.0576e-03
  0.55555556  0.22222222  0.00000000  2.0576e-03
  0.55555556  0.22222222  0.16666667  2.0576e-03
  0.55555556  0.22222222  0.33333333  2.0576e-03
  0.55555556  0.22222222  0.50000000  2.0576e-03
  0.55555556  0.22222222  0.66666667  2.0576e-03
  0.55555556  0.22222222  0.83333333  2.0576e-03
  0.55555556  0.33333333  0.00000000  2.0576e-03
  0.55555556  0.33333333  0.16666667  2.0576e-03
  0.55555556  0.33333333  0.33333333  2.0576e-03
  0.55555556  0.33333333  0.50000000  2.0576e-03
  0.55555556  0.33333333  0.66666667  2.0576e-03
  0.55555556  0.33333333  0.83333333  2.0576e-03
  0.55555556  0.44444444  0.00000000  2.0576e-03
  0.55555556  0.44444444  0.16666667  2.0576e-03
  0.55555556  0.44444444  0.33333333  2.0576e-03
  0.55555556  0.44444444  0.50000000  2.0576e-03
  0.55555556  0.44444444  0.66666667  2.0576e-03
  0.55555556  0.44444444  0.83333333  2.0576e-03
  0.55555556  0.55555556  0.00000000  2.0576e-03
  0.55555556  0.55555556  0.16666667  2.0576e-03
  0.55555556  0.55555556  0.33333333  2.0576e-03
  0.55555556  0.55555556  0.50000000  2.0576e-03
  0.55555556  0.55555556  0.66666667  2.0576e-03
  0.55555556  0.55555556  0.83333333  2.0576e-03
  0.55555556  0.66666667  0.00000000  2.0576e-03
  0.55555556  0.66666667  0.16666667  2.0576e-03
  0.55555556  0.66666667  0.33333333  2.0576e-03
  0.55555556  0.66666667  0.50000000  2.0576e-03
  0.55555556  0.66666667  0.66666667  2.0576e-03
  0.55555556  0.66666667  0.83333333  2.0576e-03
  0.55555556  0.77777778  0.00000000  2.0576e-03
  0.55555556  0.77777778  0.16666667  2.0576e-03
  0.55555556  0.77777778  0.33333333  2.0576e-03
  0.55555556  0.77777778  0.50000000  2.0576e-03
  0.55555556  0.77777778  0.66666667  2.0576e-03
  0.55555556  0.77777778  0.83333333  2.0576e-03
  0.55555556  0.88888889  0.00000000  2.0576e-03
  0.55555556  0.88888889  0.16666667  2.0576e-03
  0.55555556  0.88888889  0.33333333  2.0576e-03
  0.55555556  0.88888889  0.50000000  2.0576e-03
  0.55555556  0.88888889  0.66666667  2.0576e-03
  0.55555556  0.88888889  0.83333333  2.0576e-03
  0.66666667  0.00000000  0.00000000  2.0576e-03
  0.66666667  0.00000000  0.16666667  2.0576e-03
  0.66666667  0.00000000  0.33333333  2.0576e-03
  0.66666667  0.00000000  0.50000000  2.0576e-03
  0.66666667  0.00000000  0.66666667  2.0576e-03
  0.66666667  0.00000000  0.83333333  2.0576e-03
  0.66666667  0.11111111  0.00000000  2.0576e-03
  0.66666667  0.11111111  0.16666667  2.0576e-03
  0.66666667  0.11111111  0.33333333  2.0576e-03
  0.66666667  0.11111111  0.50000000  2.0576e-03
  0.66666667  0.11111111  0.66666667  2.0576e-03
  0.66666667  0.11111111  0.83333333  2.0576e-03
  0.66666667  0.22222222  0.00000000  2.0576e-03
  0.66666667  0.22222222  0.16666667  2.0576e-03
  0.66666667  0.22222222  0.33333333  2.0576e-03
  0.66666667  0.22222222  0.50000000  2.0576e-03
  0.66666667  0.22222222  0.66666667  2.0576e-03
  0.66666667  0.22222222  0.83333333  2.0576e-03
  0.66666667  0.33333333  0.00000000  2.0576e-03
  0.66666667  0.33333333  0.16666667  2.0576e-03
  0.66666667  0.33333333  0.33333333  2.0576e-03
  0.66666667  0.33333333  0.50000000  2.0576e-03
  0.66666667  0.33333333  0.66666667  2.0576e-03
  0.66666667  0.33333333  0.83333333  2.0576e-03
  0.66666667  0.44444444  0.00000000  2.0576e-03
  0.66666667  0.44444444  0.16666667  2.0576e-03
  0.66666667  0.44444444  0.33333333  2.0576e-03
  0.66666667  0.44444444  0.50000000  2.0576e-03
  0.66666667  0.44444444  0.66666667  2.0576e-03
  0.66666667  0.44444444  0.83333333  2.0576e-03
  0.66666667  0.55555556  0.00000000  2.0576e-03
  0.66666667  0.55555556  0.16666667  2.0576e-03
  0.66666667  0.55555556  0.33333333  2.0576e-03
  0.66666667  0.55555556  0.50000000  2.0576e-03
  0.66666667  0.55555556  0.66666667  2.0576e-03
  0.66666667  0.55555556  0.83333333  2.0576e-03
  0.66666667  0.66666667  0.00000000  2.0576e-03
  0.66666667  0.66666667  0.16666667  2.0576e-03
  0.66666667  0.66666667  0.33333333  2.0576e-03
  0.66666667  0.66666667  0.50000000  2.0576e-03
  0.66666667  0.66666667  0.66666667  2.0576e-03
  0.66666667  0.66666667  0.83333333  2.0576e-03
  0.66666667  0.77777778  0.00000000  2.0576e-03
  0.66666667  0.77777778  0.16666667  2.0576e-03
  0.66666667  0.77777778  0.33333333  2.0576e-03
  0.66666667  0.77777778  0.50000000  2.0576e-03
  0.66666667  0.77777778  0.66666667  2.0576e-03
  0.66666667  0.77777778  0.83333333  2.0576e-03
  0.66666667  0.88888889  0.00000000  2.0576e-03
  0.66666667  0.88888889  0.16666667  2.0576e-03
  0.66666667  0.88888889  0.33333333  2.0576e-03
  0.66666667  0.88888889  0.50000000  2.0576e-03
  0.66666667  0.88888889  0.66666667  2.0576e-03
  0.66666667  0.88888889  0.83333333  2.0576e-03
  0.77777778  0.00000000  0.00000000  2.0576e-03
  0.77777778  0.00000000  0.16666667  2.0576e-03
  0.77777778  0.00000000  0.33333333  2.0576e-03
  0.77777778  0.00000000  0.50000000  2.0576e-03
  0.77777778  0.00000000  0.66666667  2.0576e-03
  0.77777778  0.00000000  0.83333333  2.0576e-03
  0.77777778  0.11111111  0.00000000  2.0576e-03
  0.77777778  0.11111111  0.16666667  2.0576e-03
  0.77777778  0.11111111  0.33333333  2.0576e-03
  0.77777778  0.11111111  0.50000000  2.0576e-03
  0.77777778  0.11111111  0.66666667  2.0576e-03
  0.77777778  0.11111111  0.83333333  2.0576e-03
  0.77777778  0.22222222  0.00000000  2.0576e-03
  0.77777778  0.22222222  0.16666667  2.0576e-03
  0.77777778  0.22222222  0.33333333  2.0576e-03
  0.77777778  0.22222222  0.50000000  2.0576e-03
  0.77777778  0.22222222  0.66666667  2.0576e-03
  0.77777778  0.22222222  0.83333333  2.0576e-03
  0.77777778  0.33333333  0.00000000  2.0576e-03
  0.77777778  0.33333333  0.16666667  2.0576e-03
  0.77777778  0.33333333  0.33333333  2.0576e-03
  0.77777778  0.33333333  0.50000000  2.0576e-03
  0.77777778  0.33333333  0.66666667  2.0576e-03
  0.77777778  0.33333333  0.83333333  2.0576e-03
  0.77777778  0.44444444  0.00000000  2.0576e-03
  0.77777778  0.44444444  0.16666667  2.0576e-03
  0.77777778  0.44444444  0.33333333  2.0576e-03
  0.77777778  0.44444444  0.50000000  2.0576e-03
  0.77777778  0.44444444  0.66666667  2.0576e-03
  0.77777778  0.44444444  0.83333333  2.0576e-03
  0.77777778  0.55555556  0.00000000  2.0576e-03
  0.77777778  0.55555556  0.16666667  2.0576e-03
  0.77777778  0.55555556  0.33333333  2.0576e-03
  0.77777778  0.55555556  0.50000000  2.0576e-03
  0.77777778  0.55555556  0.66666667  2.0576e-03
  0.77777778  0.55555556  0.83333333  2.0576e-03
  0.77777778  0.66666667  0.00000000  2.0576e-03
  0.77777778  0.66666667  0.16666667  2.0576e-03
  0.77777778  0.66666667  0.33333333  2.0576e-03
  0.77777778  0.66666667  0.50000000  2.0576e-03
  0.77777778  0.66666667  0.66666667  2.0576e-03
  0.77777778  0.66666667  0.83333333  2.0576e-03
  0.77777778  0.77777778  0.00000000  2.0576e-03
  0.77777778  0.77777778  0.16666667  2.0576e-03
  0.77777778  0.77777778  0.33333333  2.0576e-03
  0.77777778  0.77777778  0.50000000  2.0576e-03
  0.77777778  0.77777778  0.66666667  2.0576e-03
  0.77777778  0.77777778  0.83333333  2.0576e-03
  0.77777778  0.88888889  0.00000000  2.0576e-03
  0.77777778  0.88888889  0.16666667  2.0576e-03
  0.77777778  0.88888889  0.33333333  2.0576e-03
  0.77777778  0.88888889  0.50000000  2.0576e-03
  0.77777778  0.88888889  0.66666667  2.0576e-03
  0.77777778  0.88888889  0.83333333  2.0576e-03
  0.88888889  0.00000000  0.00000000  2.0576e-03
  0.88888889  0.00000000  0.16666667  2.0576e-03
  0.88888889  0.00000000  0.33333333  2.0576e-03
  0.88888889  0.00000000  0.50000000  2.0576e-03
  0.88888889  0.00000000  0.66666667  2.0576e-03
  0.88888889  0.00000000  0.83333333  2.0576e-03
  0.88888889  0.11111111  0.00000000  2.0576e-03
  0.88888889  0.11111111  0.16666667  2.0576e-03
  0.88888889  0.11111111  0.33333333  2.0576e-03
  0.88888889  0.11111111  0.50000000  2.0576e-03
  0.88888889  0.11111111  0.66666667  2.0576e-03
  0.88888889  0.11111111  0.83333333  2.0576e-03
  0.88888889  0.22222222  0.00000000  2.0576e-03
  0.88888889  0.22222222  0.16666667  2.0576e-03
  0.88888889  0.22222222  0.33333333  2.0576e-03
  0.88888889  0.22222222  0.50000000  2.0576e-03
  0.88888889  0.22222222  0.66666667  2.0576e-03
  0.88888889  0.22222222  0.83333333  2.0576e-03
  0.88888889  0.33333333  0.00000000  2.0576e-03
  0.88888889  0.33333333  0.16666667  2.0576e-03
  0.88888889  0.33333333  0.33333333  2.0576e-03
  0.88888889  0.33333333  0.50000000  2.0576e-03
  0.88888889  0.33333333  0.66666667  2.0576e-03
  0.88888889  0.33333333  0.83333333  2.0576e-03
  0.88888889  0.44444444  0.00000000  2.0576e-03
  0.88888889  0.44444444  0.16666667  2.0576e-03
  0.88888889  0.44444444  0.33333333  2.0576e-03
  0.88888889  0.44444444  0.50000000  2.0576e-03
  0.88888889  0.44444444  0.66666667  2.0576e-03
  0.88888889  0.44444444  0.83333333  2.0576e-03
  0.88888889  0.55555556  0.00000000  2.0576e-03
  0.88888889  0.55555556  0.16666667  2.0576e-03
  0.88888889  0.55555556  0.33333333  2.0576e-03
  0.88888889  0.55555556  0.50000000  2.0576e-03
  0.88888889  0.55555556  0.66666667  2.0576e-03
  0.88888889  0.55555556  0.83333333  2.0576e-03
  0.88888889  0.66666667  0.00000000  2.0576e-03
  0.88888889  0.66666667  0.16666667  2.0576e-03
  0.88888889  0.66666667  0.33333333  2.0576e-03
  0.88888889  0.66666667  0.50000000  2.0576e-03
  0.88888889  0.66666667  0.66666667  2.0576e-03
  0.88888889  0.66666667  0.83333333  2.0576e-03
  0.88888889  0.77777778  0.00000000  2.0576e-03
  0.88888889  0.77777778  0.16666667  2.0576e-03
  0.88888889  0.77777778  0.33333333  2.0576e-03
  0.88888889  0.77777778  0.50000000  2.0576e-03
  0.88888889  0.77777778  0.66666667  2.0576e-03
  0.88888889  0.77777778  0.83333333  2.0576e-03
  0.88888889  0.88888889  0.00000000  2.0576e-03
  0.88888889  0.88888889  0.16666667  2.0576e-03
  0.88888889  0.88888889  0.33333333  2.0576e-03
  0.88888889  0.88888889  0.50000000  2.0576e-03
  0.88888889  0.88888889  0.66666667  2.0576e-03
  0.88888889  0.88888889  0.83333333  2.0576e-03
