&CONTROL
  calculation = 'bands',
  prefix = 'nbti',
  pseudo_dir = '../../pseudo/',
  verbosity = 'low',
/
&SYSTEM
  degauss = 0.015,
  ecutrho = 340.0,
  ecutwfc = 85.0,
  ibrav = 0,
  nosym = .FALSE.,
  occupations = 'smearing',
  smearing = 'gauss',
  nat = 16,
  ntyp = 2,
  nbnd = 200,
/
&ELECTRONS
  conv_thr = 1d-10,
  electron_maxstep = 80,
  mixing_beta = 0.5,
  mixing_mode = 'local-TF',
/
&IONS
/
&CELL
/
ATOMIC_SPECIES
  Nb  92.9064 Nb.upf
  Ti  47.8670 Ti.upf
ATOMIC_POSITIONS crystal
  Ti 0.255264196600 0.744735736500 0.752159579600
  Ti 0.494735803400 0.505264263500 0.497840420400
  Ti 0.260861226200 0.739140344200 0.246223589800
  Ti 0.489138773800 0.510859655800 0.003776410200
  Ti 0.241431070400 0.243365835400 0.247059409700
  Ti -0.006634703700 0.491432181300 0.002941365700
  Ti 0.508568929600 0.006634164600 0.002940590300
  Ti 0.756634703700 0.758567818700 0.247058634300
  Nb 0.745889882900 0.254110049000 0.752982332600
  Nb 0.739711377000 0.260287265700 0.243904336500
  Nb 0.004110117100 -0.004110049000 0.497017667400
  Nb 0.010288623000 -0.010287265700 0.006095663500
  Nb -0.000814752000 0.499790652700 0.494750357400
  Nb 0.500209925500 0.000814553500 0.494750490700
  Nb 0.249790074500 0.249185446500 0.755249509300
  Nb 0.750814752000 0.750209347300 0.755249642600
CELL_PARAMETERS angstrom
      5.1742602090      0.0287385690     -0.0096198140
     -1.6882403560      4.8911698270      0.0096054860
     -0.0151952600      0.0107702590      8.4464718520
K_POINTS crystal
380
    -0.37500000  0.37500000  0.00000000 1
    -0.38194444  0.38194444  0.00000000 1
    -0.38888889  0.38888889  0.00000000 1
    -0.39583333  0.39583333  0.00000000 1
    -0.40277778  0.40277778  0.00000000 1
    -0.40972222  0.40972222  0.00000000 1
    -0.41666667  0.41666667  0.00000000 1
    -0.42361111  0.42361111  0.00000000 1
    -0.43055556  0.43055556  0.00000000 1
    -0.43750000  0.43750000  0.00000000 1
    -0.44444444  0.44444444  0.00000000 1
    -0.45138889  0.45138889  0.00000000 1
    -0.45833333  0.45833333  0.00000000 1
    -0.46527778  0.46527778  0.00000000 1
    -0.47222222  0.47222222  0.00000000 1
    -0.47916667  0.47916667  0.00000000 1
    -0.48611111  0.48611111  0.00000000 1
    -0.49305556  0.49305556  0.00000000 1
    -0.50000000  0.50000000  0.00000000 1
    -0.49324324  0.49324324  0.00000000 1
    -0.48648649  0.48648649  0.00000000 1
    -0.47972973  0.47972973  0.00000000 1
    -0.47297297  0.47297297  0.00000000 1
    -0.46621622  0.46621622  0.00000000 1
    -0.45945946  0.45945946  0.00000000 1
    -0.45270270  0.45270270  0.00000000 1
    -0.44594595  0.44594595  0.00000000 1
    -0.43918919  0.43918919  0.00000000 1
    -0.43243243  0.43243243  0.00000000 1
    -0.42567568  0.42567568  0.00000000 1
    -0.41891892  0.41891892  0.00000000 1
    -0.41216216  0.41216216  0.00000000 1
    -0.40540541  0.40540541  0.00000000 1
    -0.39864865  0.39864865  0.00000000 1
    -0.39189189  0.39189189  0.00000000 1
    -0.38513514  0.38513514  0.00000000 1
    -0.37837838  0.37837838  0.00000000 1
    -0.37162162  0.37162162  0.00000000 1
    -0.36486486  0.36486486  0.00000000 1
    -0.35810811  0.35810811  0.00000000 1
    -0.35135135  0.35135135  0.00000000 1
    -0.34459459  0.34459459  0.00000000 1
    -0.33783784  0.33783784  0.00000000 1
    -0.33108108  0.33108108  0.00000000 1
    -0.32432432  0.32432432  0.00000000 1
    -0.31756757  0.31756757  0.00000000 1
    -0.31081081  0.31081081  0.00000000 1
    -0.30405405  0.30405405  0.00000000 1
    -0.29729730  0.29729730  0.00000000 1
    -0.29054054  0.29054054  0.00000000 1
    -0.28378378  0.28378378  0.00000000 1
    -0.27702703  0.27702703  0.00000000 1
    -0.27027027  0.27027027  0.00000000 1
    -0.26351351  0.26351351  0.00000000 1
    -0.25675676  0.25675676  0.00000000 1
    -0.25000000  0.25000000  0.00000000 1
    -0.24324324  0.24324324  0.00000000 1
    -0.23648649  0.23648649  0.00000000 1
    -0.22972973  0.22972973  0.00000000 1
    -0.22297297  0.22297297  0.00000000 1
    -0.21621622  0.21621622  0.00000000 1
    -0.20945946  0.20945946  0.00000000 1
    -0.20270270  0.20270270  0.00000000 1
    -0.19594595  0.19594595  0.00000000 1
    -0.18918919  0.18918919  0.00000000 1
    -0.18243243  0.18243243  0.00000000 1
    -0.17567568  0.17567568  0.00000000 1
    -0.16891892  0.16891892  0.00000000 1
    -0.16216216  0.16216216  0.00000000 1
    -0.15540541  0.15540541  0.00000000 1
    -0.14864865  0.14864865  0.00000000 1
    -0.14189189  0.14189189  0.00000000 1
    -0.13513514  0.13513514  0.00000000 1
    -0.12837838  0.12837838  0.00000000 1
    -0.12162162  0.12162162  0.00000000 1
    -0.11486486  0.11486486  0.00000000 1
    -0.10810811  0.10810811  0.00000000 1
    -0.10135135  0.10135135  0.00000000 1
    -0.09459459  0.09459459  0.00000000 1
    -0.08783784  0.08783784  0.00000000 1
    -0.08108108  0.08108108  0.00000000 1
    -0.07432432  0.07432432  0.00000000 1
    -0.06756757  0.06756757  0.00000000 1
    -0.06081081  0.06081081  0.00000000 1
    -0.05405405  0.05405405  0.00000000 1
    -0.04729730  0.04729730  0.00000000 1
    -0.04054054  0.04054054  0.00000000 1
    -0.03378378  0.03378378  0.00000000 1
    -0.02702703  0.02702703  0.00000000 1
    -0.02027027  0.02027027  0.00000000 1
    -0.01351351  0.01351351  0.00000000 1
    -0.00675676  0.00675676  0.00000000 1
    0.00000000  0.00000000  0.00000000 1
    -0.00609756  0.00609756  0.00609756 1
    -0.01219512  0.01219512  0.01219512 1
    -0.01829268  0.01829268  0.01829268 1
    -0.02439024  0.02439024  0.02439024 1
    -0.03048780  0.03048780  0.03048780 1
    -0.03658537  0.03658537  0.03658537 1
    -0.04268293  0.04268293  0.04268293 1
    -0.04878049  0.04878049  0.04878049 1
    -0.05487805  0.05487805  0.05487805 1
    -0.06097561  0.06097561  0.06097561 1
    -0.06707317  0.06707317  0.06707317 1
    -0.07317073  0.07317073  0.07317073 1
    -0.07926829  0.07926829  0.07926829 1
    -0.08536585  0.08536585  0.08536585 1
    -0.09146341  0.09146341  0.09146341 1
    -0.09756098  0.09756098  0.09756098 1
    -0.10365854  0.10365854  0.10365854 1
    -0.10975610  0.10975610  0.10975610 1
    -0.11585366  0.11585366  0.11585366 1
    -0.12195122  0.12195122  0.12195122 1
    -0.12804878  0.12804878  0.12804878 1
    -0.13414634  0.13414634  0.13414634 1
    -0.14024390  0.14024390  0.14024390 1
    -0.14634146  0.14634146  0.14634146 1
    -0.15243902  0.15243902  0.15243902 1
    -0.15853659  0.15853659  0.15853659 1
    -0.16463415  0.16463415  0.16463415 1
    -0.17073171  0.17073171  0.17073171 1
    -0.17682927  0.17682927  0.17682927 1
    -0.18292683  0.18292683  0.18292683 1
    -0.18902439  0.18902439  0.18902439 1
    -0.19512195  0.19512195  0.19512195 1
    -0.20121951  0.20121951  0.20121951 1
    -0.20731707  0.20731707  0.20731707 1
    -0.21341463  0.21341463  0.21341463 1
    -0.21951220  0.21951220  0.21951220 1
    -0.22560976  0.22560976  0.22560976 1
    -0.23170732  0.23170732  0.23170732 1
    -0.23780488  0.23780488  0.23780488 1
    -0.24390244  0.24390244  0.24390244 1
    -0.25000000  0.25000000  0.25000000 1
    -0.25609756  0.25609756  0.25609756 1
    -0.26219512  0.26219512  0.26219512 1
    -0.26829268  0.26829268  0.26829268 1
    -0.27439024  0.27439024  0.27439024 1
    -0.28048780  0.28048780  0.28048780 1
    -0.28658537  0.28658537  0.28658537 1
    -0.29268293  0.29268293  0.29268293 1
    -0.29878049  0.29878049  0.29878049 1
    -0.30487805  0.30487805  0.30487805 1
    -0.31097561  0.31097561  0.31097561 1
    -0.31707317  0.31707317  0.31707317 1
    -0.32317073  0.32317073  0.32317073 1
    -0.32926829  0.32926829  0.32926829 1
    -0.33536585  0.33536585  0.33536585 1
    -0.34146341  0.34146341  0.34146341 1
    -0.34756098  0.34756098  0.34756098 1
    -0.35365854  0.35365854  0.35365854 1
    -0.35975610  0.35975610  0.35975610 1
    -0.36585366  0.36585366  0.36585366 1
    -0.37195122  0.37195122  0.37195122 1
    -0.37804878  0.37804878  0.37804878 1
    -0.38414634  0.38414634  0.38414634 1
    -0.39024390  0.39024390  0.39024390 1
    -0.39634146  0.39634146  0.39634146 1
    -0.40243902  0.40243902  0.40243902 1
    -0.40853659  0.40853659  0.40853659 1
    -0.41463415  0.41463415  0.41463415 1
    -0.42073171  0.42073171  0.42073171 1
    -0.42682927  0.42682927  0.42682927 1
    -0.43292683  0.43292683  0.43292683 1
    -0.43902439  0.43902439  0.43902439 1
    -0.44512195  0.44512195  0.44512195 1
    -0.45121951  0.45121951  0.45121951 1
    -0.45731707  0.45731707  0.45731707 1
    -0.46341463  0.46341463  0.46341463 1
    -0.46951220  0.46951220  0.46951220 1
    -0.47560976  0.47560976  0.47560976 1
    -0.48170732  0.48170732  0.48170732 1
    -0.48780488  0.48780488  0.48780488 1
    -0.49390244  0.49390244  0.49390244 1
    -0.50000000  0.50000000  0.50000000 1
    -0.49500000  0.50500000  0.50000000 1
    -0.49000000  0.51000000  0.50000000 1
    -0.48500000  0.51500000  0.50000000 1
    -0.48000000  0.52000000  0.50000000 1
    -0.47500000  0.52500000  0.50000000 1
    -0.47000000  0.53000000  0.50000000 1
    -0.46500000  0.53500000  0.50000000 1
    -0.46000000  0.54000000  0.50000000 1
    -0.45500000  0.54500000  0.50000000 1
    -0.45000000  0.55000000  0.50000000 1
    -0.44500000  0.55500000  0.50000000 1
    -0.44000000  0.56000000  0.50000000 1
    -0.43500000  0.56500000  0.50000000 1
    -0.43000000  0.57000000  0.50000000 1
    -0.42500000  0.57500000  0.50000000 1
    -0.42000000  0.58000000  0.50000000 1
    -0.41500000  0.58500000  0.50000000 1
    -0.41000000  0.59000000  0.50000000 1
    -0.40500000  0.59500000  0.50000000 1
    -0.40000000  0.60000000  0.50000000 1
    -0.39500000  0.60500000  0.50000000 1
    -0.39000000  0.61000000  0.50000000 1
    -0.38500000  0.61500000  0.50000000 1
    -0.38000000  0.62000000  0.50000000 1
    -0.37500000  0.62500000  0.50000000 1
    -0.36666667  0.62222222  0.50000000 1
    -0.35833333  0.61944444  0.50000000 1
    -0.35000000  0.61666667  0.50000000 1
    -0.34166667  0.61388889  0.50000000 1
    -0.33333333  0.61111111  0.50000000 1
    -0.32500000  0.60833333  0.50000000 1
    -0.31666667  0.60555556  0.50000000 1
    -0.30833333  0.60277778  0.50000000 1
    -0.30000000  0.60000000  0.50000000 1
    -0.29166667  0.59722222  0.50000000 1
    -0.28333333  0.59444444  0.50000000 1
    -0.27500000  0.59166667  0.50000000 1
    -0.26666667  0.58888889  0.50000000 1
    -0.25833333  0.58611111  0.50000000 1
    -0.25000000  0.58333333  0.50000000 1
    -0.24166667  0.58055556  0.50000000 1
    -0.23333333  0.57777778  0.50000000 1
    -0.22500000  0.57500000  0.50000000 1
    -0.21666667  0.57222222  0.50000000 1
    -0.20833333  0.56944444  0.50000000 1
    -0.20000000  0.56666667  0.50000000 1
    -0.19166667  0.56388889  0.50000000 1
    -0.18333333  0.56111111  0.50000000 1
    -0.17500000  0.55833333  0.50000000 1
    -0.16666667  0.55555556  0.50000000 1
    -0.15833333  0.55277778  0.50000000 1
    -0.15000000  0.55000000  0.50000000 1
    -0.14166667  0.54722222  0.50000000 1
    -0.13333333  0.54444444  0.50000000 1
    -0.12500000  0.54166667  0.50000000 1
    -0.11666667  0.53888889  0.50000000 1
    -0.10833333  0.53611111  0.50000000 1
    -0.10000000  0.53333333  0.50000000 1
    -0.09166667  0.53055556  0.50000000 1
    -0.08333333  0.52777778  0.50000000 1
    -0.07500000  0.52500000  0.50000000 1
    -0.06666667  0.52222222  0.50000000 1
    -0.05833333  0.51944444  0.50000000 1
    -0.05000000  0.51666667  0.50000000 1
    -0.04166667  0.51388889  0.50000000 1
    -0.03333333  0.51111111  0.50000000 1
    -0.02500000  0.50833333  0.50000000 1
    -0.01666667  0.50555556  0.50000000 1
    -0.00833333  0.50277778  0.50000000 1
    0.00000000  0.50000000  0.50000000 1
    0.00000000  0.50000000  0.48611111 1
    0.00000000  0.50000000  0.47222222 1
    0.00000000  0.50000000  0.45833333 1
    0.00000000  0.50000000  0.44444444 1
    0.00000000  0.50000000  0.43055556 1
    0.00000000  0.50000000  0.41666667 1
    0.00000000  0.50000000  0.40277778 1
    0.00000000  0.50000000  0.38888889 1
    0.00000000  0.50000000  0.37500000 1
    0.00000000  0.50000000  0.36111111 1
    0.00000000  0.50000000  0.34722222 1
    0.00000000  0.50000000  0.33333333 1
    0.00000000  0.50000000  0.31944444 1
    0.00000000  0.50000000  0.30555556 1
    0.00000000  0.50000000  0.29166667 1
    0.00000000  0.50000000  0.27777778 1
    0.00000000  0.50000000  0.26388889 1
    0.00000000  0.50000000  0.25000000 1
    0.00000000  0.50000000  0.23611111 1
    0.00000000  0.50000000  0.22222222 1
    0.00000000  0.50000000  0.20833333 1
    0.00000000  0.50000000  0.19444444 1
    0.00000000  0.50000000  0.18055556 1
    0.00000000  0.50000000  0.16666667 1
    0.00000000  0.50000000  0.15277778 1
    0.00000000  0.50000000  0.13888889 1
    0.00000000  0.50000000  0.12500000 1
    0.00000000  0.50000000  0.11111111 1
    0.00000000  0.50000000  0.09722222 1
    0.00000000  0.50000000  0.08333333 1
    0.00000000  0.50000000  0.06944444 1
    0.00000000  0.50000000  0.05555556 1
    0.00000000  0.50000000  0.04166667 1
    0.00000000  0.50000000  0.02777778 1
    0.00000000  0.50000000  0.01388889 1
    0.00000000  0.50000000  0.00000000 1
    0.00000000  0.49206349  0.00000000 1
    0.00000000  0.48412698  0.00000000 1
    0.00000000  0.47619048  0.00000000 1
    0.00000000  0.46825397  0.00000000 1
    0.00000000  0.46031746  0.00000000 1
    0.00000000  0.45238095  0.00000000 1
    0.00000000  0.44444444  0.00000000 1
    0.00000000  0.43650794  0.00000000 1
    0.00000000  0.42857143  0.00000000 1
    0.00000000  0.42063492  0.00000000 1
    0.00000000  0.41269841  0.00000000 1
    0.00000000  0.40476190  0.00000000 1
    0.00000000  0.39682540  0.00000000 1
    0.00000000  0.38888889  0.00000000 1
    0.00000000  0.38095238  0.00000000 1
    0.00000000  0.37301587  0.00000000 1
    0.00000000  0.36507937  0.00000000 1
    0.00000000  0.35714286  0.00000000 1
    0.00000000  0.34920635  0.00000000 1
    0.00000000  0.34126984  0.00000000 1
    0.00000000  0.33333333  0.00000000 1
    0.00000000  0.32539683  0.00000000 1
    0.00000000  0.31746032  0.00000000 1
    0.00000000  0.30952381  0.00000000 1
    0.00000000  0.30158730  0.00000000 1
    0.00000000  0.29365079  0.00000000 1
    0.00000000  0.28571429  0.00000000 1
    0.00000000  0.27777778  0.00000000 1
    0.00000000  0.26984127  0.00000000 1
    0.00000000  0.26190476  0.00000000 1
    0.00000000  0.25396825  0.00000000 1
    0.00000000  0.24603175  0.00000000 1
    0.00000000  0.23809524  0.00000000 1
    0.00000000  0.23015873  0.00000000 1
    0.00000000  0.22222222  0.00000000 1
    0.00000000  0.21428571  0.00000000 1
    0.00000000  0.20634921  0.00000000 1
    0.00000000  0.19841270  0.00000000 1
    0.00000000  0.19047619  0.00000000 1
    0.00000000  0.18253968  0.00000000 1
    0.00000000  0.17460317  0.00000000 1
    0.00000000  0.16666667  0.00000000 1
    0.00000000  0.15873016  0.00000000 1
    0.00000000  0.15079365  0.00000000 1
    0.00000000  0.14285714  0.00000000 1
    0.00000000  0.13492063  0.00000000 1
    0.00000000  0.12698413  0.00000000 1
    0.00000000  0.11904762  0.00000000 1
    0.00000000  0.11111111  0.00000000 1
    0.00000000  0.10317460  0.00000000 1
    0.00000000  0.09523810  0.00000000 1
    0.00000000  0.08730159  0.00000000 1
    0.00000000  0.07936508  0.00000000 1
    0.00000000  0.07142857  0.00000000 1
    0.00000000  0.06349206  0.00000000 1
    0.00000000  0.05555556  0.00000000 1
    0.00000000  0.04761905  0.00000000 1
    0.00000000  0.03968254  0.00000000 1
    0.00000000  0.03174603  0.00000000 1
    0.00000000  0.02380952  0.00000000 1
    0.00000000  0.01587302  0.00000000 1
    0.00000000  0.00793651  0.00000000 1
    0.00000000  0.00000000  0.00000000 1
    0.00000000  0.00000000  0.01388889 1
    0.00000000  0.00000000  0.02777778 1
    0.00000000  0.00000000  0.04166667 1
    0.00000000  0.00000000  0.05555556 1
    0.00000000  0.00000000  0.06944444 1
    0.00000000  0.00000000  0.08333333 1
    0.00000000  0.00000000  0.09722222 1
    0.00000000  0.00000000  0.11111111 1
    0.00000000  0.00000000  0.12500000 1
    0.00000000  0.00000000  0.13888889 1
    0.00000000  0.00000000  0.15277778 1
    0.00000000  0.00000000  0.16666667 1
    0.00000000  0.00000000  0.18055556 1
    0.00000000  0.00000000  0.19444444 1
    0.00000000  0.00000000  0.20833333 1
    0.00000000  0.00000000  0.22222222 1
    0.00000000  0.00000000  0.23611111 1
    0.00000000  0.00000000  0.25000000 1
    0.00000000  0.00000000  0.26388889 1
    0.00000000  0.00000000  0.27777778 1
    0.00000000  0.00000000  0.29166667 1
    0.00000000  0.00000000  0.30555556 1
    0.00000000  0.00000000  0.31944444 1
    0.00000000  0.00000000  0.33333333 1
    0.00000000  0.00000000  0.34722222 1
    0.00000000  0.00000000  0.36111111 1
    0.00000000  0.00000000  0.37500000 1
    0.00000000  0.00000000  0.38888889 1
    0.00000000  0.00000000  0.40277778 1
    0.00000000  0.00000000  0.41666667 1
    0.00000000  0.00000000  0.43055556 1
    0.00000000  0.00000000  0.44444444 1
    0.00000000  0.00000000  0.45833333 1
    0.00000000  0.00000000  0.47222222 1
    0.00000000  0.00000000  0.48611111 1
    0.00000000  0.00000000  0.50000000 1
