&CONTROL
  calculation = 'bands',
  prefix = 'nbti',
  pseudo_dir = '../../pseudo/',
  verbosity = 'low',
/
&SYSTEM
  degauss = 0.015,
  ecutrho = 340.0,
  ecutwfc = 85.0,
  ibrav = 0,
  nosym = .FALSE.,
  occupations = 'smearing',
  smearing = 'gauss',
  nat = 16,
  ntyp = 2,
  nbnd = 200,
/
&ELECTRONS
  conv_thr = 1d-10,
  electron_maxstep = 80,
  mixing_beta = 0.5,
  mixing_mode = 'local-TF',
/
&IONS
/
&CELL
/
ATOMIC_SPECIES
  Nb  92.9064 Nb.upf
  Ti  47.8670 Ti.upf
ATOMIC_POSITIONS crystal
  Ti 0.253595611900 0.746404422700 0.752074729700
  Ti 0.496404388100 0.503595577300 0.497925270300
  Ti 0.260891610000 0.739108077400 0.246639697600
  Ti 0.489108390000 0.510891922600 0.003360302400
  Ti 0.245447844900 0.247038360100 0.246468527200
  Ti -0.002961363100 0.495447701000 0.003531412900
  Ti 0.504552155100 0.002961639900 0.003531472800
  Ti 0.752961363100 0.754552299000 0.246468587100
  Nb 0.746910190500 0.253089859200 0.755567690600
  Nb 0.740245228700 0.259754910300 0.241023587900
  Nb 0.003089809500 -0.003089859200 0.494432309400
  Nb 0.009754771300 -0.009754910300 0.008976412100
  Nb 0.000296645900 0.500247508200 0.494794165200
  Nb 0.499752401600 -0.000296552700 0.494794148400
  Nb 0.250247598400 0.250296552700 0.755205851600
  Nb 0.749703354100 0.749752491800 0.755205834800
CELL_PARAMETERS angstrom
      5.0252661260      0.0206271460     -0.0063770560
     -1.6462880150      4.7480003990      0.0063766700
     -0.0101549640      0.0072004720      8.2334289330
K_POINTS crystal
391
    -0.37500000  0.37500000  0.00000000 1
    -0.38194444  0.38194444  0.00000000 1
    -0.38888889  0.38888889  0.00000000 1
    -0.39583333  0.39583333  0.00000000 1
    -0.40277778  0.40277778  0.00000000 1
    -0.40972222  0.40972222  0.00000000 1
    -0.41666667  0.41666667  0.00000000 1
    -0.42361111  0.42361111  0.00000000 1
    -0.43055556  0.43055556  0.00000000 1
    -0.43750000  0.43750000  0.00000000 1
    -0.44444444  0.44444444  0.00000000 1
    -0.45138889  0.45138889  0.00000000 1
    -0.45833333  0.45833333  0.00000000 1
    -0.46527778  0.46527778  0.00000000 1
    -0.47222222  0.47222222  0.00000000 1
    -0.47916667  0.47916667  0.00000000 1
    -0.48611111  0.48611111  0.00000000 1
    -0.49305556  0.49305556  0.00000000 1
    -0.50000000  0.50000000  0.00000000 1
    -0.49342105  0.49342105  0.00000000 1
    -0.48684211  0.48684211  0.00000000 1
    -0.48026316  0.48026316  0.00000000 1
    -0.47368421  0.47368421  0.00000000 1
    -0.46710526  0.46710526  0.00000000 1
    -0.46052632  0.46052632  0.00000000 1
    -0.45394737  0.45394737  0.00000000 1
    -0.44736842  0.44736842  0.00000000 1
    -0.44078947  0.44078947  0.00000000 1
    -0.43421053  0.43421053  0.00000000 1
    -0.42763158  0.42763158  0.00000000 1
    -0.42105263  0.42105263  0.00000000 1
    -0.41447368  0.41447368  0.00000000 1
    -0.40789474  0.40789474  0.00000000 1
    -0.40131579  0.40131579  0.00000000 1
    -0.39473684  0.39473684  0.00000000 1
    -0.38815789  0.38815789  0.00000000 1
    -0.38157895  0.38157895  0.00000000 1
    -0.37500000  0.37500000  0.00000000 1
    -0.36842105  0.36842105  0.00000000 1
    -0.36184211  0.36184211  0.00000000 1
    -0.35526316  0.35526316  0.00000000 1
    -0.34868421  0.34868421  0.00000000 1
    -0.34210526  0.34210526  0.00000000 1
    -0.33552632  0.33552632  0.00000000 1
    -0.32894737  0.32894737  0.00000000 1
    -0.32236842  0.32236842  0.00000000 1
    -0.31578947  0.31578947  0.00000000 1
    -0.30921053  0.30921053  0.00000000 1
    -0.30263158  0.30263158  0.00000000 1
    -0.29605263  0.29605263  0.00000000 1
    -0.28947368  0.28947368  0.00000000 1
    -0.28289474  0.28289474  0.00000000 1
    -0.27631579  0.27631579  0.00000000 1
    -0.26973684  0.26973684  0.00000000 1
    -0.26315789  0.26315789  0.00000000 1
    -0.25657895  0.25657895  0.00000000 1
    -0.25000000  0.25000000  0.00000000 1
    -0.24342105  0.24342105  0.00000000 1
    -0.23684211  0.23684211  0.00000000 1
    -0.23026316  0.23026316  0.00000000 1
    -0.22368421  0.22368421  0.00000000 1
    -0.21710526  0.21710526  0.00000000 1
    -0.21052632  0.21052632  0.00000000 1
    -0.20394737  0.20394737  0.00000000 1
    -0.19736842  0.19736842  0.00000000 1
    -0.19078947  0.19078947  0.00000000 1
    -0.18421053  0.18421053  0.00000000 1
    -0.17763158  0.17763158  0.00000000 1
    -0.17105263  0.17105263  0.00000000 1
    -0.16447368  0.16447368  0.00000000 1
    -0.15789474  0.15789474  0.00000000 1
    -0.15131579  0.15131579  0.00000000 1
    -0.14473684  0.14473684  0.00000000 1
    -0.13815789  0.13815789  0.00000000 1
    -0.13157895  0.13157895  0.00000000 1
    -0.12500000  0.12500000  0.00000000 1
    -0.11842105  0.11842105  0.00000000 1
    -0.11184211  0.11184211  0.00000000 1
    -0.10526316  0.10526316  0.00000000 1
    -0.09868421  0.09868421  0.00000000 1
    -0.09210526  0.09210526  0.00000000 1
    -0.08552632  0.08552632  0.00000000 1
    -0.07894737  0.07894737  0.00000000 1
    -0.07236842  0.07236842  0.00000000 1
    -0.06578947  0.06578947  0.00000000 1
    -0.05921053  0.05921053  0.00000000 1
    -0.05263158  0.05263158  0.00000000 1
    -0.04605263  0.04605263  0.00000000 1
    -0.03947368  0.03947368  0.00000000 1
    -0.03289474  0.03289474  0.00000000 1
    -0.02631579  0.02631579  0.00000000 1
    -0.01973684  0.01973684  0.00000000 1
    -0.01315789  0.01315789  0.00000000 1
    -0.00657895  0.00657895  0.00000000 1
    0.00000000  0.00000000  0.00000000 1
    -0.00588235  0.00588235  0.00588235 1
    -0.01176471  0.01176471  0.01176471 1
    -0.01764706  0.01764706  0.01764706 1
    -0.02352941  0.02352941  0.02352941 1
    -0.02941176  0.02941176  0.02941176 1
    -0.03529412  0.03529412  0.03529412 1
    -0.04117647  0.04117647  0.04117647 1
    -0.04705882  0.04705882  0.04705882 1
    -0.05294118  0.05294118  0.05294118 1
    -0.05882353  0.05882353  0.05882353 1
    -0.06470588  0.06470588  0.06470588 1
    -0.07058824  0.07058824  0.07058824 1
    -0.07647059  0.07647059  0.07647059 1
    -0.08235294  0.08235294  0.08235294 1
    -0.08823529  0.08823529  0.08823529 1
    -0.09411765  0.09411765  0.09411765 1
    -0.10000000  0.10000000  0.10000000 1
    -0.10588235  0.10588235  0.10588235 1
    -0.11176471  0.11176471  0.11176471 1
    -0.11764706  0.11764706  0.11764706 1
    -0.12352941  0.12352941  0.12352941 1
    -0.12941176  0.12941176  0.12941176 1
    -0.13529412  0.13529412  0.13529412 1
    -0.14117647  0.14117647  0.14117647 1
    -0.14705882  0.14705882  0.14705882 1
    -0.15294118  0.15294118  0.15294118 1
    -0.15882353  0.15882353  0.15882353 1
    -0.16470588  0.16470588  0.16470588 1
    -0.17058824  0.17058824  0.17058824 1
    -0.17647059  0.17647059  0.17647059 1
    -0.18235294  0.18235294  0.18235294 1
    -0.18823529  0.18823529  0.18823529 1
    -0.19411765  0.19411765  0.19411765 1
    -0.20000000  0.20000000  0.20000000 1
    -0.20588235  0.20588235  0.20588235 1
    -0.21176471  0.21176471  0.21176471 1
    -0.21764706  0.21764706  0.21764706 1
    -0.22352941  0.22352941  0.22352941 1
    -0.22941176  0.22941176  0.22941176 1
    -0.23529412  0.23529412  0.23529412 1
    -0.24117647  0.24117647  0.24117647 1
    -0.24705882  0.24705882  0.24705882 1
    -0.25294118  0.25294118  0.25294118 1
    -0.25882353  0.25882353  0.25882353 1
    -0.26470588  0.26470588  0.26470588 1
    -0.27058824  0.27058824  0.27058824 1
    -0.27647059  0.27647059  0.27647059 1
    -0.28235294  0.28235294  0.28235294 1
    -0.28823529  0.28823529  0.28823529 1
    -0.29411765  0.29411765  0.29411765 1
    -0.30000000  0.30000000  0.30000000 1
    -0.30588235  0.30588235  0.30588235 1
    -0.31176471  0.31176471  0.31176471 1
    -0.31764706  0.31764706  0.31764706 1
    -0.32352941  0.32352941  0.32352941 1
    -0.32941176  0.32941176  0.32941176 1
    -0.33529412  0.33529412  0.33529412 1
    -0.34117647  0.34117647  0.34117647 1
    -0.34705882  0.34705882  0.34705882 1
    -0.35294118  0.35294118  0.35294118 1
    -0.35882353  0.35882353  0.35882353 1
    -0.36470588  0.36470588  0.36470588 1
    -0.37058824  0.37058824  0.37058824 1
    -0.37647059  0.37647059  0.37647059 1
    -0.38235294  0.38235294  0.38235294 1
    -0.38823529  0.38823529  0.38823529 1
    -0.39411765  0.39411765  0.39411765 1
    -0.40000000  0.40000000  0.40000000 1
    -0.40588235  0.40588235  0.40588235 1
    -0.41176471  0.41176471  0.41176471 1
    -0.41764706  0.41764706  0.41764706 1
    -0.42352941  0.42352941  0.42352941 1
    -0.42941176  0.42941176  0.42941176 1
    -0.43529412  0.43529412  0.43529412 1
    -0.44117647  0.44117647  0.44117647 1
    -0.44705882  0.44705882  0.44705882 1
    -0.45294118  0.45294118  0.45294118 1
    -0.45882353  0.45882353  0.45882353 1
    -0.46470588  0.46470588  0.46470588 1
    -0.47058824  0.47058824  0.47058824 1
    -0.47647059  0.47647059  0.47647059 1
    -0.48235294  0.48235294  0.48235294 1
    -0.48823529  0.48823529  0.48823529 1
    -0.49411765  0.49411765  0.49411765 1
    -0.50000000  0.50000000  0.50000000 1
    -0.49519231  0.50480769  0.50000000 1
    -0.49038462  0.50961538  0.50000000 1
    -0.48557692  0.51442308  0.50000000 1
    -0.48076923  0.51923077  0.50000000 1
    -0.47596154  0.52403846  0.50000000 1
    -0.47115385  0.52884615  0.50000000 1
    -0.46634615  0.53365385  0.50000000 1
    -0.46153846  0.53846154  0.50000000 1
    -0.45673077  0.54326923  0.50000000 1
    -0.45192308  0.54807692  0.50000000 1
    -0.44711538  0.55288462  0.50000000 1
    -0.44230769  0.55769231  0.50000000 1
    -0.43750000  0.56250000  0.50000000 1
    -0.43269231  0.56730769  0.50000000 1
    -0.42788462  0.57211538  0.50000000 1
    -0.42307692  0.57692308  0.50000000 1
    -0.41826923  0.58173077  0.50000000 1
    -0.41346154  0.58653846  0.50000000 1
    -0.40865385  0.59134615  0.50000000 1
    -0.40384615  0.59615385  0.50000000 1
    -0.39903846  0.60096154  0.50000000 1
    -0.39423077  0.60576923  0.50000000 1
    -0.38942308  0.61057692  0.50000000 1
    -0.38461538  0.61538462  0.50000000 1
    -0.37980769  0.62019231  0.50000000 1
    -0.37500000  0.62500000  0.50000000 1
    -0.36684783  0.62228261  0.50000000 1
    -0.35869565  0.61956522  0.50000000 1
    -0.35054348  0.61684783  0.50000000 1
    -0.34239130  0.61413043  0.50000000 1
    -0.33423913  0.61141304  0.50000000 1
    -0.32608696  0.60869565  0.50000000 1
    -0.31793478  0.60597826  0.50000000 1
    -0.30978261  0.60326087  0.50000000 1
    -0.30163043  0.60054348  0.50000000 1
    -0.29347826  0.59782609  0.50000000 1
    -0.28532609  0.59510870  0.50000000 1
    -0.27717391  0.59239130  0.50000000 1
    -0.26902174  0.58967391  0.50000000 1
    -0.26086957  0.58695652  0.50000000 1
    -0.25271739  0.58423913  0.50000000 1
    -0.24456522  0.58152174  0.50000000 1
    -0.23641304  0.57880435  0.50000000 1
    -0.22826087  0.57608696  0.50000000 1
    -0.22010870  0.57336957  0.50000000 1
    -0.21195652  0.57065217  0.50000000 1
    -0.20380435  0.56793478  0.50000000 1
    -0.19565217  0.56521739  0.50000000 1
    -0.18750000  0.56250000  0.50000000 1
    -0.17934783  0.55978261  0.50000000 1
    -0.17119565  0.55706522  0.50000000 1
    -0.16304348  0.55434783  0.50000000 1
    -0.15489130  0.55163043  0.50000000 1
    -0.14673913  0.54891304  0.50000000 1
    -0.13858696  0.54619565  0.50000000 1
    -0.13043478  0.54347826  0.50000000 1
    -0.12228261  0.54076087  0.50000000 1
    -0.11413043  0.53804348  0.50000000 1
    -0.10597826  0.53532609  0.50000000 1
    -0.09782609  0.53260870  0.50000000 1
    -0.08967391  0.52989130  0.50000000 1
    -0.08152174  0.52717391  0.50000000 1
    -0.07336957  0.52445652  0.50000000 1
    -0.06521739  0.52173913  0.50000000 1
    -0.05706522  0.51902174  0.50000000 1
    -0.04891304  0.51630435  0.50000000 1
    -0.04076087  0.51358696  0.50000000 1
    -0.03260870  0.51086957  0.50000000 1
    -0.02445652  0.50815217  0.50000000 1
    -0.01630435  0.50543478  0.50000000 1
    -0.00815217  0.50271739  0.50000000 1
    0.00000000  0.50000000  0.50000000 1
    0.00000000  0.50000000  0.48648649 1
    0.00000000  0.50000000  0.47297297 1
    0.00000000  0.50000000  0.45945946 1
    0.00000000  0.50000000  0.44594595 1
    0.00000000  0.50000000  0.43243243 1
    0.00000000  0.50000000  0.41891892 1
    0.00000000  0.50000000  0.40540541 1
    0.00000000  0.50000000  0.39189189 1
    0.00000000  0.50000000  0.37837838 1
    0.00000000  0.50000000  0.36486486 1
    0.00000000  0.50000000  0.35135135 1
    0.00000000  0.50000000  0.33783784 1
    0.00000000  0.50000000  0.32432432 1
    0.00000000  0.50000000  0.31081081 1
    0.00000000  0.50000000  0.29729730 1
    0.00000000  0.50000000  0.28378378 1
    0.00000000  0.50000000  0.27027027 1
    0.00000000  0.50000000  0.25675676 1
    0.00000000  0.50000000  0.24324324 1
    0.00000000  0.50000000  0.22972973 1
    0.00000000  0.50000000  0.21621622 1
    0.00000000  0.50000000  0.20270270 1
    0.00000000  0.50000000  0.18918919 1
    0.00000000  0.50000000  0.17567568 1
    0.00000000  0.50000000  0.16216216 1
    0.00000000  0.50000000  0.14864865 1
    0.00000000  0.50000000  0.13513514 1
    0.00000000  0.50000000  0.12162162 1
    0.00000000  0.50000000  0.10810811 1
    0.00000000  0.50000000  0.09459459 1
    0.00000000  0.50000000  0.08108108 1
    0.00000000  0.50000000  0.06756757 1
    0.00000000  0.50000000  0.05405405 1
    0.00000000  0.50000000  0.04054054 1
    0.00000000  0.50000000  0.02702703 1
    0.00000000  0.50000000  0.01351351 1
    0.00000000  0.50000000  0.00000000 1
    0.00000000  0.49230769  0.00000000 1
    0.00000000  0.48461538  0.00000000 1
    0.00000000  0.47692308  0.00000000 1
    0.00000000  0.46923077  0.00000000 1
    0.00000000  0.46153846  0.00000000 1
    0.00000000  0.45384615  0.00000000 1
    0.00000000  0.44615385  0.00000000 1
    0.00000000  0.43846154  0.00000000 1
    0.00000000  0.43076923  0.00000000 1
    0.00000000  0.42307692  0.00000000 1
    0.00000000  0.41538462  0.00000000 1
    0.00000000  0.40769231  0.00000000 1
    0.00000000  0.40000000  0.00000000 1
    0.00000000  0.39230769  0.00000000 1
    0.00000000  0.38461538  0.00000000 1
    0.00000000  0.37692308  0.00000000 1
    0.00000000  0.36923077  0.00000000 1
    0.00000000  0.36153846  0.00000000 1
    0.00000000  0.35384615  0.00000000 1
    0.00000000  0.34615385  0.00000000 1
    0.00000000  0.33846154  0.00000000 1
    0.00000000  0.33076923  0.00000000 1
    0.00000000  0.32307692  0.00000000 1
    0.00000000  0.31538462  0.00000000 1
    0.00000000  0.30769231  0.00000000 1
    0.00000000  0.30000000  0.00000000 1
    0.00000000  0.29230769  0.00000000 1
    0.00000000  0.28461538  0.00000000 1
    0.00000000  0.27692308  0.00000000 1
    0.00000000  0.26923077  0.00000000 1
    0.00000000  0.26153846  0.00000000 1
    0.00000000  0.25384615  0.00000000 1
    0.00000000  0.24615385  0.00000000 1
    0.00000000  0.23846154  0.00000000 1
    0.00000000  0.23076923  0.00000000 1
    0.00000000  0.22307692  0.00000000 1
    0.00000000  0.21538462  0.00000000 1
    0.00000000  0.20769231  0.00000000 1
    0.00000000  0.20000000  0.00000000 1
    0.00000000  0.19230769  0.00000000 1
    0.00000000  0.18461538  0.00000000 1
    0.00000000  0.17692308  0.00000000 1
    0.00000000  0.16923077  0.00000000 1
    0.00000000  0.16153846  0.00000000 1
    0.00000000  0.15384615  0.00000000 1
    0.00000000  0.14615385  0.00000000 1
    0.00000000  0.13846154  0.00000000 1
    0.00000000  0.13076923  0.00000000 1
    0.00000000  0.12307692  0.00000000 1
    0.00000000  0.11538462  0.00000000 1
    0.00000000  0.10769231  0.00000000 1
    0.00000000  0.10000000  0.00000000 1
    0.00000000  0.09230769  0.00000000 1
    0.00000000  0.08461538  0.00000000 1
    0.00000000  0.07692308  0.00000000 1
    0.00000000  0.06923077  0.00000000 1
    0.00000000  0.06153846  0.00000000 1
    0.00000000  0.05384615  0.00000000 1
    0.00000000  0.04615385  0.00000000 1
    0.00000000  0.03846154  0.00000000 1
    0.00000000  0.03076923  0.00000000 1
    0.00000000  0.02307692  0.00000000 1
    0.00000000  0.01538462  0.00000000 1
    0.00000000  0.00769231  0.00000000 1
    0.00000000  0.00000000  0.00000000 1
    0.00000000  0.00000000  0.01351351 1
    0.00000000  0.00000000  0.02702703 1
    0.00000000  0.00000000  0.04054054 1
    0.00000000  0.00000000  0.05405405 1
    0.00000000  0.00000000  0.06756757 1
    0.00000000  0.00000000  0.08108108 1
    0.00000000  0.00000000  0.09459459 1
    0.00000000  0.00000000  0.10810811 1
    0.00000000  0.00000000  0.12162162 1
    0.00000000  0.00000000  0.13513514 1
    0.00000000  0.00000000  0.14864865 1
    0.00000000  0.00000000  0.16216216 1
    0.00000000  0.00000000  0.17567568 1
    0.00000000  0.00000000  0.18918919 1
    0.00000000  0.00000000  0.20270270 1
    0.00000000  0.00000000  0.21621622 1
    0.00000000  0.00000000  0.22972973 1
    0.00000000  0.00000000  0.24324324 1
    0.00000000  0.00000000  0.25675676 1
    0.00000000  0.00000000  0.27027027 1
    0.00000000  0.00000000  0.28378378 1
    0.00000000  0.00000000  0.29729730 1
    0.00000000  0.00000000  0.31081081 1
    0.00000000  0.00000000  0.32432432 1
    0.00000000  0.00000000  0.33783784 1
    0.00000000  0.00000000  0.35135135 1
    0.00000000  0.00000000  0.36486486 1
    0.00000000  0.00000000  0.37837838 1
    0.00000000  0.00000000  0.39189189 1
    0.00000000  0.00000000  0.40540541 1
    0.00000000  0.00000000  0.41891892 1
    0.00000000  0.00000000  0.43243243 1
    0.00000000  0.00000000  0.44594595 1
    0.00000000  0.00000000  0.45945946 1
    0.00000000  0.00000000  0.47297297 1
    0.00000000  0.00000000  0.48648649 1
    0.00000000  0.00000000  0.50000000 1
