&CONTROL
  calculation = 'scf',
  prefix = 'nbti',
  pseudo_dir = '../../pseudo/',
  tprnfor = .TRUE.,
  tstress = .TRUE.,
  verbosity = 'low',
/
&SYSTEM
  degauss = 0.015,
  ecutrho = 340.0,
  ecutwfc = 85.0,
  ibrav = 0,
  nosym = .FALSE.,
  occupations = 'smearing',
  smearing = 'gauss',
  nat = 16,
  ntyp = 2,
/
&ELECTRONS
  conv_thr = 1d-10,
  electron_maxstep = 80,
  mixing_beta = 0.5,
  mixing_mode = 'local-TF',
/
&IONS
/
&CELL
/
ATOMIC_SPECIES
  Nb  92.9064 Nb.upf
  Ti  47.8670 Ti.upf
ATOMIC_POSITIONS crystal
  Ti 0.253595611900 0.746404422700 0.752074729700
  Ti 0.496404388100 0.503595577300 0.497925270300
  Ti 0.260891610000 0.739108077400 0.246639697600
  Ti 0.489108390000 0.510891922600 0.003360302400
  Ti 0.245447844900 0.247038360100 0.246468527200
  Ti -0.002961363100 0.495447701000 0.003531412900
  Ti 0.504552155100 0.002961639900 0.003531472800
  Ti 0.752961363100 0.754552299000 0.246468587100
  Nb 0.746910190500 0.253089859200 0.755567690600
  Nb 0.740245228700 0.259754910300 0.241023587900
  Nb 0.003089809500 -0.003089859200 0.494432309400
  Nb 0.009754771300 -0.009754910300 0.008976412100
  Nb 0.000296645900 0.500247508200 0.494794165200
  Nb 0.499752401600 -0.000296552700 0.494794148400
  Nb 0.250247598400 0.250296552700 0.755205851600
  Nb 0.749703354100 0.749752491800 0.755205834800
K_POINTS automatic
  9 9 6 0 0 0
CELL_PARAMETERS angstrom
      5.0252661260      0.0206271460     -0.0063770560
     -1.6462880150      4.7480003990      0.0063766700
     -0.0101549640      0.0072004720      8.2334289330