&CONTROL
  calculation = 'bands',
  prefix = 'nb',
  pseudo_dir = '../../pseudo/',
  verbosity = 'low',
/
&SYSTEM
  degauss = 0.015,
  ecutrho = 340,
  ecutwfc = 85.0,
  ibrav = 0,
  nbnd = 14,
  nosym = .FALSE.,
  occupations = 'smearing',
  smearing = 'gauss',
  nat = 1,
  ntyp = 1,
/
&ELECTRONS
  conv_thr = 1d-10,
  diagonalization = 'davidson',
  electron_maxstep = 40,
  mixing_beta = 0.7,
/
&IONS
/
&CELL
/
ATOMIC_SPECIES
  Nb  92.9064 Nb.upf
ATOMIC_POSITIONS crystal
  Nb 0.000000000000 0.000000000000 0.000000000000
CELL_PARAMETERS angstrom
      1.4414166560      1.4414166560      1.4414166560
      1.4414166560     -1.4414166560     -1.4414166560
     -1.4414166560      1.4414166560     -1.4414166560
K_POINTS crystal
910
    0.00000000  0.00000000  0.00000000 1
    0.00228311  -0.00228311  0.00228311 1
    0.00456621  -0.00456621  0.00456621 1
    0.00684932  -0.00684932  0.00684932 1
    0.00913242  -0.00913242  0.00913242 1
    0.01141553  -0.01141553  0.01141553 1
    0.01369863  -0.01369863  0.01369863 1
    0.01598174  -0.01598174  0.01598174 1
    0.01826484  -0.01826484  0.01826484 1
    0.02054795  -0.02054795  0.02054795 1
    0.02283105  -0.02283105  0.02283105 1
    0.02511416  -0.02511416  0.02511416 1
    0.02739726  -0.02739726  0.02739726 1
    0.02968037  -0.02968037  0.02968037 1
    0.03196347  -0.03196347  0.03196347 1
    0.03424658  -0.03424658  0.03424658 1
    0.03652968  -0.03652968  0.03652968 1
    0.03881279  -0.03881279  0.03881279 1
    0.04109589  -0.04109589  0.04109589 1
    0.04337900  -0.04337900  0.04337900 1
    0.04566210  -0.04566210  0.04566210 1
    0.04794521  -0.04794521  0.04794521 1
    0.05022831  -0.05022831  0.05022831 1
    0.05251142  -0.05251142  0.05251142 1
    0.05479452  -0.05479452  0.05479452 1
    0.05707763  -0.05707763  0.05707763 1
    0.05936073  -0.05936073  0.05936073 1
    0.06164384  -0.06164384  0.06164384 1
    0.06392694  -0.06392694  0.06392694 1
    0.06621005  -0.06621005  0.06621005 1
    0.06849315  -0.06849315  0.06849315 1
    0.07077626  -0.07077626  0.07077626 1
    0.07305936  -0.07305936  0.07305936 1
    0.07534247  -0.07534247  0.07534247 1
    0.07762557  -0.07762557  0.07762557 1
    0.07990868  -0.07990868  0.07990868 1
    0.08219178  -0.08219178  0.08219178 1
    0.08447489  -0.08447489  0.08447489 1
    0.08675799  -0.08675799  0.08675799 1
    0.08904110  -0.08904110  0.08904110 1
    0.09132420  -0.09132420  0.09132420 1
    0.09360731  -0.09360731  0.09360731 1
    0.09589041  -0.09589041  0.09589041 1
    0.09817352  -0.09817352  0.09817352 1
    0.10045662  -0.10045662  0.10045662 1
    0.10273973  -0.10273973  0.10273973 1
    0.10502283  -0.10502283  0.10502283 1
    0.10730594  -0.10730594  0.10730594 1
    0.10958904  -0.10958904  0.10958904 1
    0.11187215  -0.11187215  0.11187215 1
    0.11415525  -0.11415525  0.11415525 1
    0.11643836  -0.11643836  0.11643836 1
    0.11872146  -0.11872146  0.11872146 1
    0.12100457  -0.12100457  0.12100457 1
    0.12328767  -0.12328767  0.12328767 1
    0.12557078  -0.12557078  0.12557078 1
    0.12785388  -0.12785388  0.12785388 1
    0.13013699  -0.13013699  0.13013699 1
    0.13242009  -0.13242009  0.13242009 1
    0.13470320  -0.13470320  0.13470320 1
    0.13698630  -0.13698630  0.13698630 1
    0.13926941  -0.13926941  0.13926941 1
    0.14155251  -0.14155251  0.14155251 1
    0.14383562  -0.14383562  0.14383562 1
    0.14611872  -0.14611872  0.14611872 1
    0.14840183  -0.14840183  0.14840183 1
    0.15068493  -0.15068493  0.15068493 1
    0.15296804  -0.15296804  0.15296804 1
    0.15525114  -0.15525114  0.15525114 1
    0.15753425  -0.15753425  0.15753425 1
    0.15981735  -0.15981735  0.15981735 1
    0.16210046  -0.16210046  0.16210046 1
    0.16438356  -0.16438356  0.16438356 1
    0.16666667  -0.16666667  0.16666667 1
    0.16894977  -0.16894977  0.16894977 1
    0.17123288  -0.17123288  0.17123288 1
    0.17351598  -0.17351598  0.17351598 1
    0.17579909  -0.17579909  0.17579909 1
    0.17808219  -0.17808219  0.17808219 1
    0.18036530  -0.18036530  0.18036530 1
    0.18264840  -0.18264840  0.18264840 1
    0.18493151  -0.18493151  0.18493151 1
    0.18721461  -0.18721461  0.18721461 1
    0.18949772  -0.18949772  0.18949772 1
    0.19178082  -0.19178082  0.19178082 1
    0.19406393  -0.19406393  0.19406393 1
    0.19634703  -0.19634703  0.19634703 1
    0.19863014  -0.19863014  0.19863014 1
    0.20091324  -0.20091324  0.20091324 1
    0.20319635  -0.20319635  0.20319635 1
    0.20547945  -0.20547945  0.20547945 1
    0.20776256  -0.20776256  0.20776256 1
    0.21004566  -0.21004566  0.21004566 1
    0.21232877  -0.21232877  0.21232877 1
    0.21461187  -0.21461187  0.21461187 1
    0.21689498  -0.21689498  0.21689498 1
    0.21917808  -0.21917808  0.21917808 1
    0.22146119  -0.22146119  0.22146119 1
    0.22374429  -0.22374429  0.22374429 1
    0.22602740  -0.22602740  0.22602740 1
    0.22831050  -0.22831050  0.22831050 1
    0.23059361  -0.23059361  0.23059361 1
    0.23287671  -0.23287671  0.23287671 1
    0.23515982  -0.23515982  0.23515982 1
    0.23744292  -0.23744292  0.23744292 1
    0.23972603  -0.23972603  0.23972603 1
    0.24200913  -0.24200913  0.24200913 1
    0.24429224  -0.24429224  0.24429224 1
    0.24657534  -0.24657534  0.24657534 1
    0.24885845  -0.24885845  0.24885845 1
    0.25114155  -0.25114155  0.25114155 1
    0.25342466  -0.25342466  0.25342466 1
    0.25570776  -0.25570776  0.25570776 1
    0.25799087  -0.25799087  0.25799087 1
    0.26027397  -0.26027397  0.26027397 1
    0.26255708  -0.26255708  0.26255708 1
    0.26484018  -0.26484018  0.26484018 1
    0.26712329  -0.26712329  0.26712329 1
    0.26940639  -0.26940639  0.26940639 1
    0.27168950  -0.27168950  0.27168950 1
    0.27397260  -0.27397260  0.27397260 1
    0.27625571  -0.27625571  0.27625571 1
    0.27853881  -0.27853881  0.27853881 1
    0.28082192  -0.28082192  0.28082192 1
    0.28310502  -0.28310502  0.28310502 1
    0.28538813  -0.28538813  0.28538813 1
    0.28767123  -0.28767123  0.28767123 1
    0.28995434  -0.28995434  0.28995434 1
    0.29223744  -0.29223744  0.29223744 1
    0.29452055  -0.29452055  0.29452055 1
    0.29680365  -0.29680365  0.29680365 1
    0.29908676  -0.29908676  0.29908676 1
    0.30136986  -0.30136986  0.30136986 1
    0.30365297  -0.30365297  0.30365297 1
    0.30593607  -0.30593607  0.30593607 1
    0.30821918  -0.30821918  0.30821918 1
    0.31050228  -0.31050228  0.31050228 1
    0.31278539  -0.31278539  0.31278539 1
    0.31506849  -0.31506849  0.31506849 1
    0.31735160  -0.31735160  0.31735160 1
    0.31963470  -0.31963470  0.31963470 1
    0.32191781  -0.32191781  0.32191781 1
    0.32420091  -0.32420091  0.32420091 1
    0.32648402  -0.32648402  0.32648402 1
    0.32876712  -0.32876712  0.32876712 1
    0.33105023  -0.33105023  0.33105023 1
    0.33333333  -0.33333333  0.33333333 1
    0.33561644  -0.33561644  0.33561644 1
    0.33789954  -0.33789954  0.33789954 1
    0.34018265  -0.34018265  0.34018265 1
    0.34246575  -0.34246575  0.34246575 1
    0.34474886  -0.34474886  0.34474886 1
    0.34703196  -0.34703196  0.34703196 1
    0.34931507  -0.34931507  0.34931507 1
    0.35159817  -0.35159817  0.35159817 1
    0.35388128  -0.35388128  0.35388128 1
    0.35616438  -0.35616438  0.35616438 1
    0.35844749  -0.35844749  0.35844749 1
    0.36073059  -0.36073059  0.36073059 1
    0.36301370  -0.36301370  0.36301370 1
    0.36529680  -0.36529680  0.36529680 1
    0.36757991  -0.36757991  0.36757991 1
    0.36986301  -0.36986301  0.36986301 1
    0.37214612  -0.37214612  0.37214612 1
    0.37442922  -0.37442922  0.37442922 1
    0.37671233  -0.37671233  0.37671233 1
    0.37899543  -0.37899543  0.37899543 1
    0.38127854  -0.38127854  0.38127854 1
    0.38356164  -0.38356164  0.38356164 1
    0.38584475  -0.38584475  0.38584475 1
    0.38812785  -0.38812785  0.38812785 1
    0.39041096  -0.39041096  0.39041096 1
    0.39269406  -0.39269406  0.39269406 1
    0.39497717  -0.39497717  0.39497717 1
    0.39726027  -0.39726027  0.39726027 1
    0.39954338  -0.39954338  0.39954338 1
    0.40182648  -0.40182648  0.40182648 1
    0.40410959  -0.40410959  0.40410959 1
    0.40639269  -0.40639269  0.40639269 1
    0.40867580  -0.40867580  0.40867580 1
    0.41095890  -0.41095890  0.41095890 1
    0.41324201  -0.41324201  0.41324201 1
    0.41552511  -0.41552511  0.41552511 1
    0.41780822  -0.41780822  0.41780822 1
    0.42009132  -0.42009132  0.42009132 1
    0.42237443  -0.42237443  0.42237443 1
    0.42465753  -0.42465753  0.42465753 1
    0.42694064  -0.42694064  0.42694064 1
    0.42922374  -0.42922374  0.42922374 1
    0.43150685  -0.43150685  0.43150685 1
    0.43378995  -0.43378995  0.43378995 1
    0.43607306  -0.43607306  0.43607306 1
    0.43835616  -0.43835616  0.43835616 1
    0.44063927  -0.44063927  0.44063927 1
    0.44292237  -0.44292237  0.44292237 1
    0.44520548  -0.44520548  0.44520548 1
    0.44748858  -0.44748858  0.44748858 1
    0.44977169  -0.44977169  0.44977169 1
    0.45205479  -0.45205479  0.45205479 1
    0.45433790  -0.45433790  0.45433790 1
    0.45662100  -0.45662100  0.45662100 1
    0.45890411  -0.45890411  0.45890411 1
    0.46118721  -0.46118721  0.46118721 1
    0.46347032  -0.46347032  0.46347032 1
    0.46575342  -0.46575342  0.46575342 1
    0.46803653  -0.46803653  0.46803653 1
    0.47031963  -0.47031963  0.47031963 1
    0.47260274  -0.47260274  0.47260274 1
    0.47488584  -0.47488584  0.47488584 1
    0.47716895  -0.47716895  0.47716895 1
    0.47945205  -0.47945205  0.47945205 1
    0.48173516  -0.48173516  0.48173516 1
    0.48401826  -0.48401826  0.48401826 1
    0.48630137  -0.48630137  0.48630137 1
    0.48858447  -0.48858447  0.48858447 1
    0.49086758  -0.49086758  0.49086758 1
    0.49315068  -0.49315068  0.49315068 1
    0.49543379  -0.49543379  0.49543379 1
    0.49771689  -0.49771689  0.49771689 1
    0.50000000  -0.50000000  0.50000000 1
    0.49677419  -0.49677419  0.50000000 1
    0.49354839  -0.49354839  0.50000000 1
    0.49032258  -0.49032258  0.50000000 1
    0.48709677  -0.48709677  0.50000000 1
    0.48387097  -0.48387097  0.50000000 1
    0.48064516  -0.48064516  0.50000000 1
    0.47741935  -0.47741935  0.50000000 1
    0.47419355  -0.47419355  0.50000000 1
    0.47096774  -0.47096774  0.50000000 1
    0.46774194  -0.46774194  0.50000000 1
    0.46451613  -0.46451613  0.50000000 1
    0.46129032  -0.46129032  0.50000000 1
    0.45806452  -0.45806452  0.50000000 1
    0.45483871  -0.45483871  0.50000000 1
    0.45161290  -0.45161290  0.50000000 1
    0.44838710  -0.44838710  0.50000000 1
    0.44516129  -0.44516129  0.50000000 1
    0.44193548  -0.44193548  0.50000000 1
    0.43870968  -0.43870968  0.50000000 1
    0.43548387  -0.43548387  0.50000000 1
    0.43225806  -0.43225806  0.50000000 1
    0.42903226  -0.42903226  0.50000000 1
    0.42580645  -0.42580645  0.50000000 1
    0.42258065  -0.42258065  0.50000000 1
    0.41935484  -0.41935484  0.50000000 1
    0.41612903  -0.41612903  0.50000000 1
    0.41290323  -0.41290323  0.50000000 1
    0.40967742  -0.40967742  0.50000000 1
    0.40645161  -0.40645161  0.50000000 1
    0.40322581  -0.40322581  0.50000000 1
    0.40000000  -0.40000000  0.50000000 1
    0.39677419  -0.39677419  0.50000000 1
    0.39354839  -0.39354839  0.50000000 1
    0.39032258  -0.39032258  0.50000000 1
    0.38709677  -0.38709677  0.50000000 1
    0.38387097  -0.38387097  0.50000000 1
    0.38064516  -0.38064516  0.50000000 1
    0.37741935  -0.37741935  0.50000000 1
    0.37419355  -0.37419355  0.50000000 1
    0.37096774  -0.37096774  0.50000000 1
    0.36774194  -0.36774194  0.50000000 1
    0.36451613  -0.36451613  0.50000000 1
    0.36129032  -0.36129032  0.50000000 1
    0.35806452  -0.35806452  0.50000000 1
    0.35483871  -0.35483871  0.50000000 1
    0.35161290  -0.35161290  0.50000000 1
    0.34838710  -0.34838710  0.50000000 1
    0.34516129  -0.34516129  0.50000000 1
    0.34193548  -0.34193548  0.50000000 1
    0.33870968  -0.33870968  0.50000000 1
    0.33548387  -0.33548387  0.50000000 1
    0.33225806  -0.33225806  0.50000000 1
    0.32903226  -0.32903226  0.50000000 1
    0.32580645  -0.32580645  0.50000000 1
    0.32258065  -0.32258065  0.50000000 1
    0.31935484  -0.31935484  0.50000000 1
    0.31612903  -0.31612903  0.50000000 1
    0.31290323  -0.31290323  0.50000000 1
    0.30967742  -0.30967742  0.50000000 1
    0.30645161  -0.30645161  0.50000000 1
    0.30322581  -0.30322581  0.50000000 1
    0.30000000  -0.30000000  0.50000000 1
    0.29677419  -0.29677419  0.50000000 1
    0.29354839  -0.29354839  0.50000000 1
    0.29032258  -0.29032258  0.50000000 1
    0.28709677  -0.28709677  0.50000000 1
    0.28387097  -0.28387097  0.50000000 1
    0.28064516  -0.28064516  0.50000000 1
    0.27741935  -0.27741935  0.50000000 1
    0.27419355  -0.27419355  0.50000000 1
    0.27096774  -0.27096774  0.50000000 1
    0.26774194  -0.26774194  0.50000000 1
    0.26451613  -0.26451613  0.50000000 1
    0.26129032  -0.26129032  0.50000000 1
    0.25806452  -0.25806452  0.50000000 1
    0.25483871  -0.25483871  0.50000000 1
    0.25161290  -0.25161290  0.50000000 1
    0.24838710  -0.24838710  0.50000000 1
    0.24516129  -0.24516129  0.50000000 1
    0.24193548  -0.24193548  0.50000000 1
    0.23870968  -0.23870968  0.50000000 1
    0.23548387  -0.23548387  0.50000000 1
    0.23225806  -0.23225806  0.50000000 1
    0.22903226  -0.22903226  0.50000000 1
    0.22580645  -0.22580645  0.50000000 1
    0.22258065  -0.22258065  0.50000000 1
    0.21935484  -0.21935484  0.50000000 1
    0.21612903  -0.21612903  0.50000000 1
    0.21290323  -0.21290323  0.50000000 1
    0.20967742  -0.20967742  0.50000000 1
    0.20645161  -0.20645161  0.50000000 1
    0.20322581  -0.20322581  0.50000000 1
    0.20000000  -0.20000000  0.50000000 1
    0.19677419  -0.19677419  0.50000000 1
    0.19354839  -0.19354839  0.50000000 1
    0.19032258  -0.19032258  0.50000000 1
    0.18709677  -0.18709677  0.50000000 1
    0.18387097  -0.18387097  0.50000000 1
    0.18064516  -0.18064516  0.50000000 1
    0.17741935  -0.17741935  0.50000000 1
    0.17419355  -0.17419355  0.50000000 1
    0.17096774  -0.17096774  0.50000000 1
    0.16774194  -0.16774194  0.50000000 1
    0.16451613  -0.16451613  0.50000000 1
    0.16129032  -0.16129032  0.50000000 1
    0.15806452  -0.15806452  0.50000000 1
    0.15483871  -0.15483871  0.50000000 1
    0.15161290  -0.15161290  0.50000000 1
    0.14838710  -0.14838710  0.50000000 1
    0.14516129  -0.14516129  0.50000000 1
    0.14193548  -0.14193548  0.50000000 1
    0.13870968  -0.13870968  0.50000000 1
    0.13548387  -0.13548387  0.50000000 1
    0.13225806  -0.13225806  0.50000000 1
    0.12903226  -0.12903226  0.50000000 1
    0.12580645  -0.12580645  0.50000000 1
    0.12258065  -0.12258065  0.50000000 1
    0.11935484  -0.11935484  0.50000000 1
    0.11612903  -0.11612903  0.50000000 1
    0.11290323  -0.11290323  0.50000000 1
    0.10967742  -0.10967742  0.50000000 1
    0.10645161  -0.10645161  0.50000000 1
    0.10322581  -0.10322581  0.50000000 1
    0.10000000  -0.10000000  0.50000000 1
    0.09677419  -0.09677419  0.50000000 1
    0.09354839  -0.09354839  0.50000000 1
    0.09032258  -0.09032258  0.50000000 1
    0.08709677  -0.08709677  0.50000000 1
    0.08387097  -0.08387097  0.50000000 1
    0.08064516  -0.08064516  0.50000000 1
    0.07741935  -0.07741935  0.50000000 1
    0.07419355  -0.07419355  0.50000000 1
    0.07096774  -0.07096774  0.50000000 1
    0.06774194  -0.06774194  0.50000000 1
    0.06451613  -0.06451613  0.50000000 1
    0.06129032  -0.06129032  0.50000000 1
    0.05806452  -0.05806452  0.50000000 1
    0.05483871  -0.05483871  0.50000000 1
    0.05161290  -0.05161290  0.50000000 1
    0.04838710  -0.04838710  0.50000000 1
    0.04516129  -0.04516129  0.50000000 1
    0.04193548  -0.04193548  0.50000000 1
    0.03870968  -0.03870968  0.50000000 1
    0.03548387  -0.03548387  0.50000000 1
    0.03225806  -0.03225806  0.50000000 1
    0.02903226  -0.02903226  0.50000000 1
    0.02580645  -0.02580645  0.50000000 1
    0.02258065  -0.02258065  0.50000000 1
    0.01935484  -0.01935484  0.50000000 1
    0.01612903  -0.01612903  0.50000000 1
    0.01290323  -0.01290323  0.50000000 1
    0.00967742  -0.00967742  0.50000000 1
    0.00645161  -0.00645161  0.50000000 1
    0.00322581  -0.00322581  0.50000000 1
    0.00000000  0.00000000  0.50000000 1
    0.00000000  0.00000000  0.49677419 1
    0.00000000  0.00000000  0.49354839 1
    0.00000000  0.00000000  0.49032258 1
    0.00000000  0.00000000  0.48709677 1
    0.00000000  0.00000000  0.48387097 1
    0.00000000  0.00000000  0.48064516 1
    0.00000000  0.00000000  0.47741935 1
    0.00000000  0.00000000  0.47419355 1
    0.00000000  0.00000000  0.47096774 1
    0.00000000  0.00000000  0.46774194 1
    0.00000000  0.00000000  0.46451613 1
    0.00000000  0.00000000  0.46129032 1
    0.00000000  0.00000000  0.45806452 1
    0.00000000  0.00000000  0.45483871 1
    0.00000000  0.00000000  0.45161290 1
    0.00000000  0.00000000  0.44838710 1
    0.00000000  0.00000000  0.44516129 1
    0.00000000  0.00000000  0.44193548 1
    0.00000000  0.00000000  0.43870968 1
    0.00000000  0.00000000  0.43548387 1
    0.00000000  0.00000000  0.43225806 1
    0.00000000  0.00000000  0.42903226 1
    0.00000000  0.00000000  0.42580645 1
    0.00000000  0.00000000  0.42258065 1
    0.00000000  0.00000000  0.41935484 1
    0.00000000  0.00000000  0.41612903 1
    0.00000000  0.00000000  0.41290323 1
    0.00000000  0.00000000  0.40967742 1
    0.00000000  0.00000000  0.40645161 1
    0.00000000  0.00000000  0.40322581 1
    0.00000000  0.00000000  0.40000000 1
    0.00000000  0.00000000  0.39677419 1
    0.00000000  0.00000000  0.39354839 1
    0.00000000  0.00000000  0.39032258 1
    0.00000000  0.00000000  0.38709677 1
    0.00000000  0.00000000  0.38387097 1
    0.00000000  0.00000000  0.38064516 1
    0.00000000  0.00000000  0.37741935 1
    0.00000000  0.00000000  0.37419355 1
    0.00000000  0.00000000  0.37096774 1
    0.00000000  0.00000000  0.36774194 1
    0.00000000  0.00000000  0.36451613 1
    0.00000000  0.00000000  0.36129032 1
    0.00000000  0.00000000  0.35806452 1
    0.00000000  0.00000000  0.35483871 1
    0.00000000  0.00000000  0.35161290 1
    0.00000000  0.00000000  0.34838710 1
    0.00000000  0.00000000  0.34516129 1
    0.00000000  0.00000000  0.34193548 1
    0.00000000  0.00000000  0.33870968 1
    0.00000000  0.00000000  0.33548387 1
    0.00000000  0.00000000  0.33225806 1
    0.00000000  0.00000000  0.32903226 1
    0.00000000  0.00000000  0.32580645 1
    0.00000000  0.00000000  0.32258065 1
    0.00000000  0.00000000  0.31935484 1
    0.00000000  0.00000000  0.31612903 1
    0.00000000  0.00000000  0.31290323 1
    0.00000000  0.00000000  0.30967742 1
    0.00000000  0.00000000  0.30645161 1
    0.00000000  0.00000000  0.30322581 1
    0.00000000  0.00000000  0.30000000 1
    0.00000000  0.00000000  0.29677419 1
    0.00000000  0.00000000  0.29354839 1
    0.00000000  0.00000000  0.29032258 1
    0.00000000  0.00000000  0.28709677 1
    0.00000000  0.00000000  0.28387097 1
    0.00000000  0.00000000  0.28064516 1
    0.00000000  0.00000000  0.27741935 1
    0.00000000  0.00000000  0.27419355 1
    0.00000000  0.00000000  0.27096774 1
    0.00000000  0.00000000  0.26774194 1
    0.00000000  0.00000000  0.26451613 1
    0.00000000  0.00000000  0.26129032 1
    0.00000000  0.00000000  0.25806452 1
    0.00000000  0.00000000  0.25483871 1
    0.00000000  0.00000000  0.25161290 1
    0.00000000  0.00000000  0.24838710 1
    0.00000000  0.00000000  0.24516129 1
    0.00000000  0.00000000  0.24193548 1
    0.00000000  0.00000000  0.23870968 1
    0.00000000  0.00000000  0.23548387 1
    0.00000000  0.00000000  0.23225806 1
    0.00000000  0.00000000  0.22903226 1
    0.00000000  0.00000000  0.22580645 1
    0.00000000  0.00000000  0.22258065 1
    0.00000000  0.00000000  0.21935484 1
    0.00000000  0.00000000  0.21612903 1
    0.00000000  0.00000000  0.21290323 1
    0.00000000  0.00000000  0.20967742 1
    0.00000000  0.00000000  0.20645161 1
    0.00000000  0.00000000  0.20322581 1
    0.00000000  0.00000000  0.20000000 1
    0.00000000  0.00000000  0.19677419 1
    0.00000000  0.00000000  0.19354839 1
    0.00000000  0.00000000  0.19032258 1
    0.00000000  0.00000000  0.18709677 1
    0.00000000  0.00000000  0.18387097 1
    0.00000000  0.00000000  0.18064516 1
    0.00000000  0.00000000  0.17741935 1
    0.00000000  0.00000000  0.17419355 1
    0.00000000  0.00000000  0.17096774 1
    0.00000000  0.00000000  0.16774194 1
    0.00000000  0.00000000  0.16451613 1
    0.00000000  0.00000000  0.16129032 1
    0.00000000  0.00000000  0.15806452 1
    0.00000000  0.00000000  0.15483871 1
    0.00000000  0.00000000  0.15161290 1
    0.00000000  0.00000000  0.14838710 1
    0.00000000  0.00000000  0.14516129 1
    0.00000000  0.00000000  0.14193548 1
    0.00000000  0.00000000  0.13870968 1
    0.00000000  0.00000000  0.13548387 1
    0.00000000  0.00000000  0.13225806 1
    0.00000000  0.00000000  0.12903226 1
    0.00000000  0.00000000  0.12580645 1
    0.00000000  0.00000000  0.12258065 1
    0.00000000  0.00000000  0.11935484 1
    0.00000000  0.00000000  0.11612903 1
    0.00000000  0.00000000  0.11290323 1
    0.00000000  0.00000000  0.10967742 1
    0.00000000  0.00000000  0.10645161 1
    0.00000000  0.00000000  0.10322581 1
    0.00000000  0.00000000  0.10000000 1
    0.00000000  0.00000000  0.09677419 1
    0.00000000  0.00000000  0.09354839 1
    0.00000000  0.00000000  0.09032258 1
    0.00000000  0.00000000  0.08709677 1
    0.00000000  0.00000000  0.08387097 1
    0.00000000  0.00000000  0.08064516 1
    0.00000000  0.00000000  0.07741935 1
    0.00000000  0.00000000  0.07419355 1
    0.00000000  0.00000000  0.07096774 1
    0.00000000  0.00000000  0.06774194 1
    0.00000000  0.00000000  0.06451613 1
    0.00000000  0.00000000  0.06129032 1
    0.00000000  0.00000000  0.05806452 1
    0.00000000  0.00000000  0.05483871 1
    0.00000000  0.00000000  0.05161290 1
    0.00000000  0.00000000  0.04838710 1
    0.00000000  0.00000000  0.04516129 1
    0.00000000  0.00000000  0.04193548 1
    0.00000000  0.00000000  0.03870968 1
    0.00000000  0.00000000  0.03548387 1
    0.00000000  0.00000000  0.03225806 1
    0.00000000  0.00000000  0.02903226 1
    0.00000000  0.00000000  0.02580645 1
    0.00000000  0.00000000  0.02258065 1
    0.00000000  0.00000000  0.01935484 1
    0.00000000  0.00000000  0.01612903 1
    0.00000000  0.00000000  0.01290323 1
    0.00000000  0.00000000  0.00967742 1
    0.00000000  0.00000000  0.00645161 1
    0.00000000  0.00000000  0.00322581 1
    0.00000000  0.00000000  0.00000000 1
    0.00131579  0.00131579  0.00131579 1
    0.00263158  0.00263158  0.00263158 1
    0.00394737  0.00394737  0.00394737 1
    0.00526316  0.00526316  0.00526316 1
    0.00657895  0.00657895  0.00657895 1
    0.00789474  0.00789474  0.00789474 1
    0.00921053  0.00921053  0.00921053 1
    0.01052632  0.01052632  0.01052632 1
    0.01184211  0.01184211  0.01184211 1
    0.01315789  0.01315789  0.01315789 1
    0.01447368  0.01447368  0.01447368 1
    0.01578947  0.01578947  0.01578947 1
    0.01710526  0.01710526  0.01710526 1
    0.01842105  0.01842105  0.01842105 1
    0.01973684  0.01973684  0.01973684 1
    0.02105263  0.02105263  0.02105263 1
    0.02236842  0.02236842  0.02236842 1
    0.02368421  0.02368421  0.02368421 1
    0.02500000  0.02500000  0.02500000 1
    0.02631579  0.02631579  0.02631579 1
    0.02763158  0.02763158  0.02763158 1
    0.02894737  0.02894737  0.02894737 1
    0.03026316  0.03026316  0.03026316 1
    0.03157895  0.03157895  0.03157895 1
    0.03289474  0.03289474  0.03289474 1
    0.03421053  0.03421053  0.03421053 1
    0.03552632  0.03552632  0.03552632 1
    0.03684211  0.03684211  0.03684211 1
    0.03815789  0.03815789  0.03815789 1
    0.03947368  0.03947368  0.03947368 1
    0.04078947  0.04078947  0.04078947 1
    0.04210526  0.04210526  0.04210526 1
    0.04342105  0.04342105  0.04342105 1
    0.04473684  0.04473684  0.04473684 1
    0.04605263  0.04605263  0.04605263 1
    0.04736842  0.04736842  0.04736842 1
    0.04868421  0.04868421  0.04868421 1
    0.05000000  0.05000000  0.05000000 1
    0.05131579  0.05131579  0.05131579 1
    0.05263158  0.05263158  0.05263158 1
    0.05394737  0.05394737  0.05394737 1
    0.05526316  0.05526316  0.05526316 1
    0.05657895  0.05657895  0.05657895 1
    0.05789474  0.05789474  0.05789474 1
    0.05921053  0.05921053  0.05921053 1
    0.06052632  0.06052632  0.06052632 1
    0.06184211  0.06184211  0.06184211 1
    0.06315789  0.06315789  0.06315789 1
    0.06447368  0.06447368  0.06447368 1
    0.06578947  0.06578947  0.06578947 1
    0.06710526  0.06710526  0.06710526 1
    0.06842105  0.06842105  0.06842105 1
    0.06973684  0.06973684  0.06973684 1
    0.07105263  0.07105263  0.07105263 1
    0.07236842  0.07236842  0.07236842 1
    0.07368421  0.07368421  0.07368421 1
    0.07500000  0.07500000  0.07500000 1
    0.07631579  0.07631579  0.07631579 1
    0.07763158  0.07763158  0.07763158 1
    0.07894737  0.07894737  0.07894737 1
    0.08026316  0.08026316  0.08026316 1
    0.08157895  0.08157895  0.08157895 1
    0.08289474  0.08289474  0.08289474 1
    0.08421053  0.08421053  0.08421053 1
    0.08552632  0.08552632  0.08552632 1
    0.08684211  0.08684211  0.08684211 1
    0.08815789  0.08815789  0.08815789 1
    0.08947368  0.08947368  0.08947368 1
    0.09078947  0.09078947  0.09078947 1
    0.09210526  0.09210526  0.09210526 1
    0.09342105  0.09342105  0.09342105 1
    0.09473684  0.09473684  0.09473684 1
    0.09605263  0.09605263  0.09605263 1
    0.09736842  0.09736842  0.09736842 1
    0.09868421  0.09868421  0.09868421 1
    0.10000000  0.10000000  0.10000000 1
    0.10131579  0.10131579  0.10131579 1
    0.10263158  0.10263158  0.10263158 1
    0.10394737  0.10394737  0.10394737 1
    0.10526316  0.10526316  0.10526316 1
    0.10657895  0.10657895  0.10657895 1
    0.10789474  0.10789474  0.10789474 1
    0.10921053  0.10921053  0.10921053 1
    0.11052632  0.11052632  0.11052632 1
    0.11184211  0.11184211  0.11184211 1
    0.11315789  0.11315789  0.11315789 1
    0.11447368  0.11447368  0.11447368 1
    0.11578947  0.11578947  0.11578947 1
    0.11710526  0.11710526  0.11710526 1
    0.11842105  0.11842105  0.11842105 1
    0.11973684  0.11973684  0.11973684 1
    0.12105263  0.12105263  0.12105263 1
    0.12236842  0.12236842  0.12236842 1
    0.12368421  0.12368421  0.12368421 1
    0.12500000  0.12500000  0.12500000 1
    0.12631579  0.12631579  0.12631579 1
    0.12763158  0.12763158  0.12763158 1
    0.12894737  0.12894737  0.12894737 1
    0.13026316  0.13026316  0.13026316 1
    0.13157895  0.13157895  0.13157895 1
    0.13289474  0.13289474  0.13289474 1
    0.13421053  0.13421053  0.13421053 1
    0.13552632  0.13552632  0.13552632 1
    0.13684211  0.13684211  0.13684211 1
    0.13815789  0.13815789  0.13815789 1
    0.13947368  0.13947368  0.13947368 1
    0.14078947  0.14078947  0.14078947 1
    0.14210526  0.14210526  0.14210526 1
    0.14342105  0.14342105  0.14342105 1
    0.14473684  0.14473684  0.14473684 1
    0.14605263  0.14605263  0.14605263 1
    0.14736842  0.14736842  0.14736842 1
    0.14868421  0.14868421  0.14868421 1
    0.15000000  0.15000000  0.15000000 1
    0.15131579  0.15131579  0.15131579 1
    0.15263158  0.15263158  0.15263158 1
    0.15394737  0.15394737  0.15394737 1
    0.15526316  0.15526316  0.15526316 1
    0.15657895  0.15657895  0.15657895 1
    0.15789474  0.15789474  0.15789474 1
    0.15921053  0.15921053  0.15921053 1
    0.16052632  0.16052632  0.16052632 1
    0.16184211  0.16184211  0.16184211 1
    0.16315789  0.16315789  0.16315789 1
    0.16447368  0.16447368  0.16447368 1
    0.16578947  0.16578947  0.16578947 1
    0.16710526  0.16710526  0.16710526 1
    0.16842105  0.16842105  0.16842105 1
    0.16973684  0.16973684  0.16973684 1
    0.17105263  0.17105263  0.17105263 1
    0.17236842  0.17236842  0.17236842 1
    0.17368421  0.17368421  0.17368421 1
    0.17500000  0.17500000  0.17500000 1
    0.17631579  0.17631579  0.17631579 1
    0.17763158  0.17763158  0.17763158 1
    0.17894737  0.17894737  0.17894737 1
    0.18026316  0.18026316  0.18026316 1
    0.18157895  0.18157895  0.18157895 1
    0.18289474  0.18289474  0.18289474 1
    0.18421053  0.18421053  0.18421053 1
    0.18552632  0.18552632  0.18552632 1
    0.18684211  0.18684211  0.18684211 1
    0.18815789  0.18815789  0.18815789 1
    0.18947368  0.18947368  0.18947368 1
    0.19078947  0.19078947  0.19078947 1
    0.19210526  0.19210526  0.19210526 1
    0.19342105  0.19342105  0.19342105 1
    0.19473684  0.19473684  0.19473684 1
    0.19605263  0.19605263  0.19605263 1
    0.19736842  0.19736842  0.19736842 1
    0.19868421  0.19868421  0.19868421 1
    0.20000000  0.20000000  0.20000000 1
    0.20131579  0.20131579  0.20131579 1
    0.20263158  0.20263158  0.20263158 1
    0.20394737  0.20394737  0.20394737 1
    0.20526316  0.20526316  0.20526316 1
    0.20657895  0.20657895  0.20657895 1
    0.20789474  0.20789474  0.20789474 1
    0.20921053  0.20921053  0.20921053 1
    0.21052632  0.21052632  0.21052632 1
    0.21184211  0.21184211  0.21184211 1
    0.21315789  0.21315789  0.21315789 1
    0.21447368  0.21447368  0.21447368 1
    0.21578947  0.21578947  0.21578947 1
    0.21710526  0.21710526  0.21710526 1
    0.21842105  0.21842105  0.21842105 1
    0.21973684  0.21973684  0.21973684 1
    0.22105263  0.22105263  0.22105263 1
    0.22236842  0.22236842  0.22236842 1
    0.22368421  0.22368421  0.22368421 1
    0.22500000  0.22500000  0.22500000 1
    0.22631579  0.22631579  0.22631579 1
    0.22763158  0.22763158  0.22763158 1
    0.22894737  0.22894737  0.22894737 1