&CONTROL
  calculation = 'scf',
  prefix = 'hea',
  pseudo_dir = '../../pseudo/',
  tprnfor = .TRUE.,
  tstress = .TRUE.,
  verbosity = 'low',
/
&SYSTEM
  degauss = 0.015,
  ecutrho = 340.0,
  ecutwfc = 85.0,
  ibrav = 0,
  nosym = .FALSE.,
  occupations = 'smearing',
  smearing = 'gauss',
  nat = 20,
  ntyp = 5,
/
&ELECTRONS
  conv_thr = 1d-10,
  diago_david_ndim = 8,
  electron_maxstep = 80,
  mixing_beta = 0.5,
  mixing_mode = 'local-TF',
/
&IONS
/
&CELL
/
ATOMIC_SPECIES
  Hf  178.4900 Hf.upf
  Nb  92.9064 Nb.upf
  Ta  180.9479 Ta.upf
  Ti  47.8670 Ti.upf
  Zr  91.2240 Zr.upf
ATOMIC_POSITIONS crystal
Hf            0.6012792916        0.6012792560        0.9009744401
Hf            0.3978055273        0.3978054910        0.8443950067
Zr            0.5994614343        0.5994614565        0.1479172718
Zr            0.8063920301        0.8063920626        0.4598080081
Ta            0.7967747443        0.7967747788        0.1969977706
Ta            0.3978701705        0.3978701841        0.1005881756
Ta            0.6009460667        0.6009460925        0.4011649787
Ta            0.2039558314        0.2039558708        0.3018799510
Ta            0.0001925638        0.0001925930        0.2510914204
Ta           -0.0013154135	 -0.0013154543        0.7507523111
Ta            0.8018308888        0.8018308761        0.9487130335
Ti            0.3997272379        0.3997272222        0.5966829751
Ti            0.1995042348        0.1995042364        0.0464105361
Nb            0.7977204332        0.7977203981        0.6974931931
Nb            0.0053473923        0.0053473785        0.0031775496
Nb           -0.0014413194	 -0.0014413079        0.5001029542
Nb            0.1971687523        0.1971687202        0.8006164560
Nb            0.3990781420        0.3990781785        0.3492517586
Nb            0.2006861197        0.2006861174        0.5529347865
Nb            0.5970158718        0.5970158495        0.6490474231
K_POINTS automatic
  9 9 4 0 0 0
CELL_PARAMETERS angstrom
   6.230419754  -0.005484276  -3.341031500
   4.889143999   3.861919405  -3.341032962
  -0.009562222  -0.003312626   9.995349966

