&input
 fildyn='hea.dyn',
 zasr='simple',
 flfrc='hea.332.fc',
/
