&input
 fildyn='nb.dyn',
 zasr='simple',
 flfrc='nb.888.fc',
/

