&CONTROL
  calculation = 'bands',
  prefix = 'nbti',
  pseudo_dir = '../../pseudo/',
  verbosity = 'low',
/
&SYSTEM
  degauss = 0.015,
  ecutrho = 340.0,
  ecutwfc = 85.0,
  ibrav = 0,
  nbnd = 40,
  nosym = .FALSE.,
  occupations = 'smearing',
  smearing = 'gauss',
  nat = 2,
  ntyp = 2,
/
&ELECTRONS
  conv_thr = 1d-10,
  diagonalization = 'davidson',
  electron_maxstep = 40,
  mixing_beta = 0.7,
/
&IONS
/
&CELL
/
ATOMIC_SPECIES
  Nb  92.9064 Nb.upf
  Ti  47.8670 Ti.upf
ATOMIC_POSITIONS crystal
  Ti 0.500000000000 0.500000000000 0.500000000000
  Nb 0.000000000000 0.000000000000 0.000000000000
CELL_PARAMETERS angstrom
      2.8331365630      0.0000000000      0.0000000000
      0.0000000000      2.8331365630      0.0000000000
      0.0000000000      0.0000000000      2.8331365630
K_POINTS crystal
730
    0.00000000  0.00000000  0.00000000 1
    0.00000000  0.00450450  0.00000000 1
    0.00000000  0.00900901  0.00000000 1
    0.00000000  0.01351351  0.00000000 1
    0.00000000  0.01801802  0.00000000 1
    0.00000000  0.02252252  0.00000000 1
    0.00000000  0.02702703  0.00000000 1
    0.00000000  0.03153153  0.00000000 1
    0.00000000  0.03603604  0.00000000 1
    0.00000000  0.04054054  0.00000000 1
    0.00000000  0.04504505  0.00000000 1
    0.00000000  0.04954955  0.00000000 1
    0.00000000  0.05405405  0.00000000 1
    0.00000000  0.05855856  0.00000000 1
    0.00000000  0.06306306  0.00000000 1
    0.00000000  0.06756757  0.00000000 1
    0.00000000  0.07207207  0.00000000 1
    0.00000000  0.07657658  0.00000000 1
    0.00000000  0.08108108  0.00000000 1
    0.00000000  0.08558559  0.00000000 1
    0.00000000  0.09009009  0.00000000 1
    0.00000000  0.09459459  0.00000000 1
    0.00000000  0.09909910  0.00000000 1
    0.00000000  0.10360360  0.00000000 1
    0.00000000  0.10810811  0.00000000 1
    0.00000000  0.11261261  0.00000000 1
    0.00000000  0.11711712  0.00000000 1
    0.00000000  0.12162162  0.00000000 1
    0.00000000  0.12612613  0.00000000 1
    0.00000000  0.13063063  0.00000000 1
    0.00000000  0.13513514  0.00000000 1
    0.00000000  0.13963964  0.00000000 1
    0.00000000  0.14414414  0.00000000 1
    0.00000000  0.14864865  0.00000000 1
    0.00000000  0.15315315  0.00000000 1
    0.00000000  0.15765766  0.00000000 1
    0.00000000  0.16216216  0.00000000 1
    0.00000000  0.16666667  0.00000000 1
    0.00000000  0.17117117  0.00000000 1
    0.00000000  0.17567568  0.00000000 1
    0.00000000  0.18018018  0.00000000 1
    0.00000000  0.18468468  0.00000000 1
    0.00000000  0.18918919  0.00000000 1
    0.00000000  0.19369369  0.00000000 1
    0.00000000  0.19819820  0.00000000 1
    0.00000000  0.20270270  0.00000000 1
    0.00000000  0.20720721  0.00000000 1
    0.00000000  0.21171171  0.00000000 1
    0.00000000  0.21621622  0.00000000 1
    0.00000000  0.22072072  0.00000000 1
    0.00000000  0.22522523  0.00000000 1
    0.00000000  0.22972973  0.00000000 1
    0.00000000  0.23423423  0.00000000 1
    0.00000000  0.23873874  0.00000000 1
    0.00000000  0.24324324  0.00000000 1
    0.00000000  0.24774775  0.00000000 1
    0.00000000  0.25225225  0.00000000 1
    0.00000000  0.25675676  0.00000000 1
    0.00000000  0.26126126  0.00000000 1
    0.00000000  0.26576577  0.00000000 1
    0.00000000  0.27027027  0.00000000 1
    0.00000000  0.27477477  0.00000000 1
    0.00000000  0.27927928  0.00000000 1
    0.00000000  0.28378378  0.00000000 1
    0.00000000  0.28828829  0.00000000 1
    0.00000000  0.29279279  0.00000000 1
    0.00000000  0.29729730  0.00000000 1
    0.00000000  0.30180180  0.00000000 1
    0.00000000  0.30630631  0.00000000 1
    0.00000000  0.31081081  0.00000000 1
    0.00000000  0.31531532  0.00000000 1
    0.00000000  0.31981982  0.00000000 1
    0.00000000  0.32432432  0.00000000 1
    0.00000000  0.32882883  0.00000000 1
    0.00000000  0.33333333  0.00000000 1
    0.00000000  0.33783784  0.00000000 1
    0.00000000  0.34234234  0.00000000 1
    0.00000000  0.34684685  0.00000000 1
    0.00000000  0.35135135  0.00000000 1
    0.00000000  0.35585586  0.00000000 1
    0.00000000  0.36036036  0.00000000 1
    0.00000000  0.36486486  0.00000000 1
    0.00000000  0.36936937  0.00000000 1
    0.00000000  0.37387387  0.00000000 1
    0.00000000  0.37837838  0.00000000 1
    0.00000000  0.38288288  0.00000000 1
    0.00000000  0.38738739  0.00000000 1
    0.00000000  0.39189189  0.00000000 1
    0.00000000  0.39639640  0.00000000 1
    0.00000000  0.40090090  0.00000000 1
    0.00000000  0.40540541  0.00000000 1
    0.00000000  0.40990991  0.00000000 1
    0.00000000  0.41441441  0.00000000 1
    0.00000000  0.41891892  0.00000000 1
    0.00000000  0.42342342  0.00000000 1
    0.00000000  0.42792793  0.00000000 1
    0.00000000  0.43243243  0.00000000 1
    0.00000000  0.43693694  0.00000000 1
    0.00000000  0.44144144  0.00000000 1
    0.00000000  0.44594595  0.00000000 1
    0.00000000  0.45045045  0.00000000 1
    0.00000000  0.45495495  0.00000000 1
    0.00000000  0.45945946  0.00000000 1
    0.00000000  0.46396396  0.00000000 1
    0.00000000  0.46846847  0.00000000 1
    0.00000000  0.47297297  0.00000000 1
    0.00000000  0.47747748  0.00000000 1
    0.00000000  0.48198198  0.00000000 1
    0.00000000  0.48648649  0.00000000 1
    0.00000000  0.49099099  0.00000000 1
    0.00000000  0.49549550  0.00000000 1
    0.00000000  0.50000000  0.00000000 1
    0.00450450  0.50000000  0.00000000 1
    0.00900901  0.50000000  0.00000000 1
    0.01351351  0.50000000  0.00000000 1
    0.01801802  0.50000000  0.00000000 1
    0.02252252  0.50000000  0.00000000 1
    0.02702703  0.50000000  0.00000000 1
    0.03153153  0.50000000  0.00000000 1
    0.03603604  0.50000000  0.00000000 1
    0.04054054  0.50000000  0.00000000 1
    0.04504505  0.50000000  0.00000000 1
    0.04954955  0.50000000  0.00000000 1
    0.05405405  0.50000000  0.00000000 1
    0.05855856  0.50000000  0.00000000 1
    0.06306306  0.50000000  0.00000000 1
    0.06756757  0.50000000  0.00000000 1
    0.07207207  0.50000000  0.00000000 1
    0.07657658  0.50000000  0.00000000 1
    0.08108108  0.50000000  0.00000000 1
    0.08558559  0.50000000  0.00000000 1
    0.09009009  0.50000000  0.00000000 1
    0.09459459  0.50000000  0.00000000 1
    0.09909910  0.50000000  0.00000000 1
    0.10360360  0.50000000  0.00000000 1
    0.10810811  0.50000000  0.00000000 1
    0.11261261  0.50000000  0.00000000 1
    0.11711712  0.50000000  0.00000000 1
    0.12162162  0.50000000  0.00000000 1
    0.12612613  0.50000000  0.00000000 1
    0.13063063  0.50000000  0.00000000 1
    0.13513514  0.50000000  0.00000000 1
    0.13963964  0.50000000  0.00000000 1
    0.14414414  0.50000000  0.00000000 1
    0.14864865  0.50000000  0.00000000 1
    0.15315315  0.50000000  0.00000000 1
    0.15765766  0.50000000  0.00000000 1
    0.16216216  0.50000000  0.00000000 1
    0.16666667  0.50000000  0.00000000 1
    0.17117117  0.50000000  0.00000000 1
    0.17567568  0.50000000  0.00000000 1
    0.18018018  0.50000000  0.00000000 1
    0.18468468  0.50000000  0.00000000 1
    0.18918919  0.50000000  0.00000000 1
    0.19369369  0.50000000  0.00000000 1
    0.19819820  0.50000000  0.00000000 1
    0.20270270  0.50000000  0.00000000 1
    0.20720721  0.50000000  0.00000000 1
    0.21171171  0.50000000  0.00000000 1
    0.21621622  0.50000000  0.00000000 1
    0.22072072  0.50000000  0.00000000 1
    0.22522523  0.50000000  0.00000000 1
    0.22972973  0.50000000  0.00000000 1
    0.23423423  0.50000000  0.00000000 1
    0.23873874  0.50000000  0.00000000 1
    0.24324324  0.50000000  0.00000000 1
    0.24774775  0.50000000  0.00000000 1
    0.25225225  0.50000000  0.00000000 1
    0.25675676  0.50000000  0.00000000 1
    0.26126126  0.50000000  0.00000000 1
    0.26576577  0.50000000  0.00000000 1
    0.27027027  0.50000000  0.00000000 1
    0.27477477  0.50000000  0.00000000 1
    0.27927928  0.50000000  0.00000000 1
    0.28378378  0.50000000  0.00000000 1
    0.28828829  0.50000000  0.00000000 1
    0.29279279  0.50000000  0.00000000 1
    0.29729730  0.50000000  0.00000000 1
    0.30180180  0.50000000  0.00000000 1
    0.30630631  0.50000000  0.00000000 1
    0.31081081  0.50000000  0.00000000 1
    0.31531532  0.50000000  0.00000000 1
    0.31981982  0.50000000  0.00000000 1
    0.32432432  0.50000000  0.00000000 1
    0.32882883  0.50000000  0.00000000 1
    0.33333333  0.50000000  0.00000000 1
    0.33783784  0.50000000  0.00000000 1
    0.34234234  0.50000000  0.00000000 1
    0.34684685  0.50000000  0.00000000 1
    0.35135135  0.50000000  0.00000000 1
    0.35585586  0.50000000  0.00000000 1
    0.36036036  0.50000000  0.00000000 1
    0.36486486  0.50000000  0.00000000 1
    0.36936937  0.50000000  0.00000000 1
    0.37387387  0.50000000  0.00000000 1
    0.37837838  0.50000000  0.00000000 1
    0.38288288  0.50000000  0.00000000 1
    0.38738739  0.50000000  0.00000000 1
    0.39189189  0.50000000  0.00000000 1
    0.39639640  0.50000000  0.00000000 1
    0.40090090  0.50000000  0.00000000 1
    0.40540541  0.50000000  0.00000000 1
    0.40990991  0.50000000  0.00000000 1
    0.41441441  0.50000000  0.00000000 1
    0.41891892  0.50000000  0.00000000 1
    0.42342342  0.50000000  0.00000000 1
    0.42792793  0.50000000  0.00000000 1
    0.43243243  0.50000000  0.00000000 1
    0.43693694  0.50000000  0.00000000 1
    0.44144144  0.50000000  0.00000000 1
    0.44594595  0.50000000  0.00000000 1
    0.45045045  0.50000000  0.00000000 1
    0.45495495  0.50000000  0.00000000 1
    0.45945946  0.50000000  0.00000000 1
    0.46396396  0.50000000  0.00000000 1
    0.46846847  0.50000000  0.00000000 1
    0.47297297  0.50000000  0.00000000 1
    0.47747748  0.50000000  0.00000000 1
    0.48198198  0.50000000  0.00000000 1
    0.48648649  0.50000000  0.00000000 1
    0.49099099  0.50000000  0.00000000 1
    0.49549550  0.50000000  0.00000000 1
    0.50000000  0.50000000  0.00000000 1
    0.49681529  0.49681529  0.00000000 1
    0.49363057  0.49363057  0.00000000 1
    0.49044586  0.49044586  0.00000000 1
    0.48726115  0.48726115  0.00000000 1
    0.48407643  0.48407643  0.00000000 1
    0.48089172  0.48089172  0.00000000 1
    0.47770701  0.47770701  0.00000000 1
    0.47452229  0.47452229  0.00000000 1
    0.47133758  0.47133758  0.00000000 1
    0.46815287  0.46815287  0.00000000 1
    0.46496815  0.46496815  0.00000000 1
    0.46178344  0.46178344  0.00000000 1
    0.45859873  0.45859873  0.00000000 1
    0.45541401  0.45541401  0.00000000 1
    0.45222930  0.45222930  0.00000000 1
    0.44904459  0.44904459  0.00000000 1
    0.44585987  0.44585987  0.00000000 1
    0.44267516  0.44267516  0.00000000 1
    0.43949045  0.43949045  0.00000000 1
    0.43630573  0.43630573  0.00000000 1
    0.43312102  0.43312102  0.00000000 1
    0.42993631  0.42993631  0.00000000 1
    0.42675159  0.42675159  0.00000000 1
    0.42356688  0.42356688  0.00000000 1
    0.42038217  0.42038217  0.00000000 1
    0.41719745  0.41719745  0.00000000 1
    0.41401274  0.41401274  0.00000000 1
    0.41082803  0.41082803  0.00000000 1
    0.40764331  0.40764331  0.00000000 1
    0.40445860  0.40445860  0.00000000 1
    0.40127389  0.40127389  0.00000000 1
    0.39808917  0.39808917  0.00000000 1
    0.39490446  0.39490446  0.00000000 1
    0.39171975  0.39171975  0.00000000 1
    0.38853503  0.38853503  0.00000000 1
    0.38535032  0.38535032  0.00000000 1
    0.38216561  0.38216561  0.00000000 1
    0.37898089  0.37898089  0.00000000 1
    0.37579618  0.37579618  0.00000000 1
    0.37261146  0.37261146  0.00000000 1
    0.36942675  0.36942675  0.00000000 1
    0.36624204  0.36624204  0.00000000 1
    0.36305732  0.36305732  0.00000000 1
    0.35987261  0.35987261  0.00000000 1
    0.35668790  0.35668790  0.00000000 1
    0.35350318  0.35350318  0.00000000 1
    0.35031847  0.35031847  0.00000000 1
    0.34713376  0.34713376  0.00000000 1
    0.34394904  0.34394904  0.00000000 1
    0.34076433  0.34076433  0.00000000 1
    0.33757962  0.33757962  0.00000000 1
    0.33439490  0.33439490  0.00000000 1
    0.33121019  0.33121019  0.00000000 1
    0.32802548  0.32802548  0.00000000 1
    0.32484076  0.32484076  0.00000000 1
    0.32165605  0.32165605  0.00000000 1
    0.31847134  0.31847134  0.00000000 1
    0.31528662  0.31528662  0.00000000 1
    0.31210191  0.31210191  0.00000000 1
    0.30891720  0.30891720  0.00000000 1
    0.30573248  0.30573248  0.00000000 1
    0.30254777  0.30254777  0.00000000 1
    0.29936306  0.29936306  0.00000000 1
    0.29617834  0.29617834  0.00000000 1
    0.29299363  0.29299363  0.00000000 1
    0.28980892  0.28980892  0.00000000 1
    0.28662420  0.28662420  0.00000000 1
    0.28343949  0.28343949  0.00000000 1
    0.28025478  0.28025478  0.00000000 1
    0.27707006  0.27707006  0.00000000 1
    0.27388535  0.27388535  0.00000000 1
    0.27070064  0.27070064  0.00000000 1
    0.26751592  0.26751592  0.00000000 1
    0.26433121  0.26433121  0.00000000 1
    0.26114650  0.26114650  0.00000000 1
    0.25796178  0.25796178  0.00000000 1
    0.25477707  0.25477707  0.00000000 1
    0.25159236  0.25159236  0.00000000 1
    0.24840764  0.24840764  0.00000000 1
    0.24522293  0.24522293  0.00000000 1
    0.24203822  0.24203822  0.00000000 1
    0.23885350  0.23885350  0.00000000 1
    0.23566879  0.23566879  0.00000000 1
    0.23248408  0.23248408  0.00000000 1
    0.22929936  0.22929936  0.00000000 1
    0.22611465  0.22611465  0.00000000 1
    0.22292994  0.22292994  0.00000000 1
    0.21974522  0.21974522  0.00000000 1
    0.21656051  0.21656051  0.00000000 1
    0.21337580  0.21337580  0.00000000 1
    0.21019108  0.21019108  0.00000000 1
    0.20700637  0.20700637  0.00000000 1
    0.20382166  0.20382166  0.00000000 1
    0.20063694  0.20063694  0.00000000 1
    0.19745223  0.19745223  0.00000000 1
    0.19426752  0.19426752  0.00000000 1
    0.19108280  0.19108280  0.00000000 1
    0.18789809  0.18789809  0.00000000 1
    0.18471338  0.18471338  0.00000000 1
    0.18152866  0.18152866  0.00000000 1
    0.17834395  0.17834395  0.00000000 1
    0.17515924  0.17515924  0.00000000 1
    0.17197452  0.17197452  0.00000000 1
    0.16878981  0.16878981  0.00000000 1
    0.16560510  0.16560510  0.00000000 1
    0.16242038  0.16242038  0.00000000 1
    0.15923567  0.15923567  0.00000000 1
    0.15605096  0.15605096  0.00000000 1
    0.15286624  0.15286624  0.00000000 1
    0.14968153  0.14968153  0.00000000 1
    0.14649682  0.14649682  0.00000000 1
    0.14331210  0.14331210  0.00000000 1
    0.14012739  0.14012739  0.00000000 1
    0.13694268  0.13694268  0.00000000 1
    0.13375796  0.13375796  0.00000000 1
    0.13057325  0.13057325  0.00000000 1
    0.12738854  0.12738854  0.00000000 1
    0.12420382  0.12420382  0.00000000 1
    0.12101911  0.12101911  0.00000000 1
    0.11783439  0.11783439  0.00000000 1
    0.11464968  0.11464968  0.00000000 1
    0.11146497  0.11146497  0.00000000 1
    0.10828025  0.10828025  0.00000000 1
    0.10509554  0.10509554  0.00000000 1
    0.10191083  0.10191083  0.00000000 1
    0.09872611  0.09872611  0.00000000 1
    0.09554140  0.09554140  0.00000000 1
    0.09235669  0.09235669  0.00000000 1
    0.08917197  0.08917197  0.00000000 1
    0.08598726  0.08598726  0.00000000 1
    0.08280255  0.08280255  0.00000000 1
    0.07961783  0.07961783  0.00000000 1
    0.07643312  0.07643312  0.00000000 1
    0.07324841  0.07324841  0.00000000 1
    0.07006369  0.07006369  0.00000000 1
    0.06687898  0.06687898  0.00000000 1
    0.06369427  0.06369427  0.00000000 1
    0.06050955  0.06050955  0.00000000 1
    0.05732484  0.05732484  0.00000000 1
    0.05414013  0.05414013  0.00000000 1
    0.05095541  0.05095541  0.00000000 1
    0.04777070  0.04777070  0.00000000 1
    0.04458599  0.04458599  0.00000000 1
    0.04140127  0.04140127  0.00000000 1
    0.03821656  0.03821656  0.00000000 1
    0.03503185  0.03503185  0.00000000 1
    0.03184713  0.03184713  0.00000000 1
    0.02866242  0.02866242  0.00000000 1
    0.02547771  0.02547771  0.00000000 1
    0.02229299  0.02229299  0.00000000 1
    0.01910828  0.01910828  0.00000000 1
    0.01592357  0.01592357  0.00000000 1
    0.01273885  0.01273885  0.00000000 1
    0.00955414  0.00955414  0.00000000 1
    0.00636943  0.00636943  0.00000000 1
    0.00318471  0.00318471  0.00000000 1
    0.00000000  0.00000000  0.00000000 1
    0.00259067  0.00259067  0.00259067 1
    0.00518135  0.00518135  0.00518135 1
    0.00777202  0.00777202  0.00777202 1
    0.01036269  0.01036269  0.01036269 1
    0.01295337  0.01295337  0.01295337 1
    0.01554404  0.01554404  0.01554404 1
    0.01813472  0.01813472  0.01813472 1
    0.02072539  0.02072539  0.02072539 1
    0.02331606  0.02331606  0.02331606 1
    0.02590674  0.02590674  0.02590674 1
    0.02849741  0.02849741  0.02849741 1
    0.03108808  0.03108808  0.03108808 1
    0.03367876  0.03367876  0.03367876 1
    0.03626943  0.03626943  0.03626943 1
    0.03886010  0.03886010  0.03886010 1
    0.04145078  0.04145078  0.04145078 1
    0.04404145  0.04404145  0.04404145 1
    0.04663212  0.04663212  0.04663212 1
    0.04922280  0.04922280  0.04922280 1
    0.05181347  0.05181347  0.05181347 1
    0.05440415  0.05440415  0.05440415 1
    0.05699482  0.05699482  0.05699482 1
    0.05958549  0.05958549  0.05958549 1
    0.06217617  0.06217617  0.06217617 1
    0.06476684  0.06476684  0.06476684 1
    0.06735751  0.06735751  0.06735751 1
    0.06994819  0.06994819  0.06994819 1
    0.07253886  0.07253886  0.07253886 1
    0.07512953  0.07512953  0.07512953 1
    0.07772021  0.07772021  0.07772021 1
    0.08031088  0.08031088  0.08031088 1
    0.08290155  0.08290155  0.08290155 1
    0.08549223  0.08549223  0.08549223 1
    0.08808290  0.08808290  0.08808290 1
    0.09067358  0.09067358  0.09067358 1
    0.09326425  0.09326425  0.09326425 1
    0.09585492  0.09585492  0.09585492 1
    0.09844560  0.09844560  0.09844560 1
    0.10103627  0.10103627  0.10103627 1
    0.10362694  0.10362694  0.10362694 1
    0.10621762  0.10621762  0.10621762 1
    0.10880829  0.10880829  0.10880829 1
    0.11139896  0.11139896  0.11139896 1
    0.11398964  0.11398964  0.11398964 1
    0.11658031  0.11658031  0.11658031 1
    0.11917098  0.11917098  0.11917098 1
    0.12176166  0.12176166  0.12176166 1
    0.12435233  0.12435233  0.12435233 1
    0.12694301  0.12694301  0.12694301 1
    0.12953368  0.12953368  0.12953368 1
    0.13212435  0.13212435  0.13212435 1
    0.13471503  0.13471503  0.13471503 1
    0.13730570  0.13730570  0.13730570 1
    0.13989637  0.13989637  0.13989637 1
    0.14248705  0.14248705  0.14248705 1
    0.14507772  0.14507772  0.14507772 1
    0.14766839  0.14766839  0.14766839 1
    0.15025907  0.15025907  0.15025907 1
    0.15284974  0.15284974  0.15284974 1
    0.15544041  0.15544041  0.15544041 1
    0.15803109  0.15803109  0.15803109 1
    0.16062176  0.16062176  0.16062176 1
    0.16321244  0.16321244  0.16321244 1
    0.16580311  0.16580311  0.16580311 1
    0.16839378  0.16839378  0.16839378 1
    0.17098446  0.17098446  0.17098446 1
    0.17357513  0.17357513  0.17357513 1
    0.17616580  0.17616580  0.17616580 1
    0.17875648  0.17875648  0.17875648 1
    0.18134715  0.18134715  0.18134715 1
    0.18393782  0.18393782  0.18393782 1
    0.18652850  0.18652850  0.18652850 1
    0.18911917  0.18911917  0.18911917 1
    0.19170984  0.19170984  0.19170984 1
    0.19430052  0.19430052  0.19430052 1
    0.19689119  0.19689119  0.19689119 1
    0.19948187  0.19948187  0.19948187 1
    0.20207254  0.20207254  0.20207254 1
    0.20466321  0.20466321  0.20466321 1
    0.20725389  0.20725389  0.20725389 1
    0.20984456  0.20984456  0.20984456 1
    0.21243523  0.21243523  0.21243523 1
    0.21502591  0.21502591  0.21502591 1
    0.21761658  0.21761658  0.21761658 1
    0.22020725  0.22020725  0.22020725 1
    0.22279793  0.22279793  0.22279793 1
    0.22538860  0.22538860  0.22538860 1
    0.22797927  0.22797927  0.22797927 1
    0.23056995  0.23056995  0.23056995 1
    0.23316062  0.23316062  0.23316062 1
    0.23575130  0.23575130  0.23575130 1
    0.23834197  0.23834197  0.23834197 1
    0.24093264  0.24093264  0.24093264 1
    0.24352332  0.24352332  0.24352332 1
    0.24611399  0.24611399  0.24611399 1
    0.24870466  0.24870466  0.24870466 1
    0.25129534  0.25129534  0.25129534 1
    0.25388601  0.25388601  0.25388601 1
    0.25647668  0.25647668  0.25647668 1
    0.25906736  0.25906736  0.25906736 1
    0.26165803  0.26165803  0.26165803 1
    0.26424870  0.26424870  0.26424870 1
    0.26683938  0.26683938  0.26683938 1
    0.26943005  0.26943005  0.26943005 1
    0.27202073  0.27202073  0.27202073 1
    0.27461140  0.27461140  0.27461140 1
    0.27720207  0.27720207  0.27720207 1
    0.27979275  0.27979275  0.27979275 1
    0.28238342  0.28238342  0.28238342 1
    0.28497409  0.28497409  0.28497409 1
    0.28756477  0.28756477  0.28756477 1
    0.29015544  0.29015544  0.29015544 1
    0.29274611  0.29274611  0.29274611 1
    0.29533679  0.29533679  0.29533679 1
    0.29792746  0.29792746  0.29792746 1
    0.30051813  0.30051813  0.30051813 1
    0.30310881  0.30310881  0.30310881 1
    0.30569948  0.30569948  0.30569948 1
    0.30829016  0.30829016  0.30829016 1
    0.31088083  0.31088083  0.31088083 1
    0.31347150  0.31347150  0.31347150 1
    0.31606218  0.31606218  0.31606218 1
    0.31865285  0.31865285  0.31865285 1
    0.32124352  0.32124352  0.32124352 1
    0.32383420  0.32383420  0.32383420 1
    0.32642487  0.32642487  0.32642487 1
    0.32901554  0.32901554  0.32901554 1
    0.33160622  0.33160622  0.33160622 1
    0.33419689  0.33419689  0.33419689 1
    0.33678756  0.33678756  0.33678756 1
    0.33937824  0.33937824  0.33937824 1
    0.34196891  0.34196891  0.34196891 1
    0.34455959  0.34455959  0.34455959 1
    0.34715026  0.34715026  0.34715026 1
    0.34974093  0.34974093  0.34974093 1
    0.35233161  0.35233161  0.35233161 1
    0.35492228  0.35492228  0.35492228 1
    0.35751295  0.35751295  0.35751295 1
    0.36010363  0.36010363  0.36010363 1
    0.36269430  0.36269430  0.36269430 1
    0.36528497  0.36528497  0.36528497 1
    0.36787565  0.36787565  0.36787565 1
    0.37046632  0.37046632  0.37046632 1
    0.37305699  0.37305699  0.37305699 1
    0.37564767  0.37564767  0.37564767 1
    0.37823834  0.37823834  0.37823834 1
    0.38082902  0.38082902  0.38082902 1
    0.38341969  0.38341969  0.38341969 1
    0.38601036  0.38601036  0.38601036 1
    0.38860104  0.38860104  0.38860104 1
    0.39119171  0.39119171  0.39119171 1
    0.39378238  0.39378238  0.39378238 1
    0.39637306  0.39637306  0.39637306 1
    0.39896373  0.39896373  0.39896373 1
    0.40155440  0.40155440  0.40155440 1
    0.40414508  0.40414508  0.40414508 1
    0.40673575  0.40673575  0.40673575 1
    0.40932642  0.40932642  0.40932642 1
    0.41191710  0.41191710  0.41191710 1
    0.41450777  0.41450777  0.41450777 1
    0.41709845  0.41709845  0.41709845 1
    0.41968912  0.41968912  0.41968912 1
    0.42227979  0.42227979  0.42227979 1
    0.42487047  0.42487047  0.42487047 1
    0.42746114  0.42746114  0.42746114 1
    0.43005181  0.43005181  0.43005181 1
    0.43264249  0.43264249  0.43264249 1
    0.43523316  0.43523316  0.43523316 1
    0.43782383  0.43782383  0.43782383 1
    0.44041451  0.44041451  0.44041451 1
    0.44300518  0.44300518  0.44300518 1
    0.44559585  0.44559585  0.44559585 1
    0.44818653  0.44818653  0.44818653 1
    0.45077720  0.45077720  0.45077720 1
    0.45336788  0.45336788  0.45336788 1
    0.45595855  0.45595855  0.45595855 1
    0.45854922  0.45854922  0.45854922 1
    0.46113990  0.46113990  0.46113990 1
    0.46373057  0.46373057  0.46373057 1
    0.46632124  0.46632124  0.46632124 1
    0.46891192  0.46891192  0.46891192 1
    0.47150259  0.47150259  0.47150259 1
    0.47409326  0.47409326  0.47409326 1
    0.47668394  0.47668394  0.47668394 1
    0.47927461  0.47927461  0.47927461 1
    0.48186528  0.48186528  0.48186528 1
    0.48445596  0.48445596  0.48445596 1
    0.48704663  0.48704663  0.48704663 1
    0.48963731  0.48963731  0.48963731 1
    0.49222798  0.49222798  0.49222798 1
    0.49481865  0.49481865  0.49481865 1
    0.49740933  0.49740933  0.49740933 1
    0.50000000  0.50000000  0.50000000 1
    0.49681529  0.50000000  0.49681529 1
    0.49363057  0.50000000  0.49363057 1
    0.49044586  0.50000000  0.49044586 1
    0.48726115  0.50000000  0.48726115 1
    0.48407643  0.50000000  0.48407643 1
    0.48089172  0.50000000  0.48089172 1
    0.47770701  0.50000000  0.47770701 1
    0.47452229  0.50000000  0.47452229 1
    0.47133758  0.50000000  0.47133758 1
    0.46815287  0.50000000  0.46815287 1
    0.46496815  0.50000000  0.46496815 1
    0.46178344  0.50000000  0.46178344 1
    0.45859873  0.50000000  0.45859873 1
    0.45541401  0.50000000  0.45541401 1
    0.45222930  0.50000000  0.45222930 1
    0.44904459  0.50000000  0.44904459 1
    0.44585987  0.50000000  0.44585987 1
    0.44267516  0.50000000  0.44267516 1
    0.43949045  0.50000000  0.43949045 1
    0.43630573  0.50000000  0.43630573 1
    0.43312102  0.50000000  0.43312102 1
    0.42993631  0.50000000  0.42993631 1
    0.42675159  0.50000000  0.42675159 1
    0.42356688  0.50000000  0.42356688 1
    0.42038217  0.50000000  0.42038217 1
    0.41719745  0.50000000  0.41719745 1
    0.41401274  0.50000000  0.41401274 1
    0.41082803  0.50000000  0.41082803 1
    0.40764331  0.50000000  0.40764331 1
    0.40445860  0.50000000  0.40445860 1
    0.40127389  0.50000000  0.40127389 1
    0.39808917  0.50000000  0.39808917 1
    0.39490446  0.50000000  0.39490446 1
    0.39171975  0.50000000  0.39171975 1
    0.38853503  0.50000000  0.38853503 1
    0.38535032  0.50000000  0.38535032 1
    0.38216561  0.50000000  0.38216561 1
    0.37898089  0.50000000  0.37898089 1
    0.37579618  0.50000000  0.37579618 1
    0.37261146  0.50000000  0.37261146 1
    0.36942675  0.50000000  0.36942675 1
    0.36624204  0.50000000  0.36624204 1
    0.36305732  0.50000000  0.36305732 1
    0.35987261  0.50000000  0.35987261 1
    0.35668790  0.50000000  0.35668790 1
    0.35350318  0.50000000  0.35350318 1
    0.35031847  0.50000000  0.35031847 1
    0.34713376  0.50000000  0.34713376 1
    0.34394904  0.50000000  0.34394904 1
    0.34076433  0.50000000  0.34076433 1
    0.33757962  0.50000000  0.33757962 1
    0.33439490  0.50000000  0.33439490 1
    0.33121019  0.50000000  0.33121019 1
    0.32802548  0.50000000  0.32802548 1
    0.32484076  0.50000000  0.32484076 1
    0.32165605  0.50000000  0.32165605 1
    0.31847134  0.50000000  0.31847134 1
    0.31528662  0.50000000  0.31528662 1
    0.31210191  0.50000000  0.31210191 1
    0.30891720  0.50000000  0.30891720 1
    0.30573248  0.50000000  0.30573248 1
    0.30254777  0.50000000  0.30254777 1
    0.29936306  0.50000000  0.29936306 1
    0.29617834  0.50000000  0.29617834 1
    0.29299363  0.50000000  0.29299363 1
    0.28980892  0.50000000  0.28980892 1
    0.28662420  0.50000000  0.28662420 1
    0.28343949  0.50000000  0.28343949 1
    0.28025478  0.50000000  0.28025478 1
    0.27707006  0.50000000  0.27707006 1
    0.27388535  0.50000000  0.27388535 1
    0.27070064  0.50000000  0.27070064 1
    0.26751592  0.50000000  0.26751592 1
    0.26433121  0.50000000  0.26433121 1
    0.26114650  0.50000000  0.26114650 1
    0.25796178  0.50000000  0.25796178 1
    0.25477707  0.50000000  0.25477707 1
    0.25159236  0.50000000  0.25159236 1
    0.24840764  0.50000000  0.24840764 1
    0.24522293  0.50000000  0.24522293 1
    0.24203822  0.50000000  0.24203822 1
    0.23885350  0.50000000  0.23885350 1
    0.23566879  0.50000000  0.23566879 1
    0.23248408  0.50000000  0.23248408 1
    0.22929936  0.50000000  0.22929936 1
    0.22611465  0.50000000  0.22611465 1
    0.22292994  0.50000000  0.22292994 1
    0.21974522  0.50000000  0.21974522 1
    0.21656051  0.50000000  0.21656051 1
    0.21337580  0.50000000  0.21337580 1
    0.21019108  0.50000000  0.21019108 1
    0.20700637  0.50000000  0.20700637 1
    0.20382166  0.50000000  0.20382166 1
    0.20063694  0.50000000  0.20063694 1
    0.19745223  0.50000000  0.19745223 1
    0.19426752  0.50000000  0.19426752 1
    0.19108280  0.50000000  0.19108280 1
    0.18789809  0.50000000  0.18789809 1
    0.18471338  0.50000000  0.18471338 1
    0.18152866  0.50000000  0.18152866 1
    0.17834395  0.50000000  0.17834395 1
    0.17515924  0.50000000  0.17515924 1
    0.17197452  0.50000000  0.17197452 1
    0.16878981  0.50000000  0.16878981 1
    0.16560510  0.50000000  0.16560510 1
    0.16242038  0.50000000  0.16242038 1
    0.15923567  0.50000000  0.15923567 1
    0.15605096  0.50000000  0.15605096 1
    0.15286624  0.50000000  0.15286624 1
    0.14968153  0.50000000  0.14968153 1
    0.14649682  0.50000000  0.14649682 1
    0.14331210  0.50000000  0.14331210 1
    0.14012739  0.50000000  0.14012739 1
    0.13694268  0.50000000  0.13694268 1
    0.13375796  0.50000000  0.13375796 1
    0.13057325  0.50000000  0.13057325 1
    0.12738854  0.50000000  0.12738854 1
    0.12420382  0.50000000  0.12420382 1
    0.12101911  0.50000000  0.12101911 1
    0.11783439  0.50000000  0.11783439 1
    0.11464968  0.50000000  0.11464968 1
    0.11146497  0.50000000  0.11146497 1
    0.10828025  0.50000000  0.10828025 1
    0.10509554  0.50000000  0.10509554 1
    0.10191083  0.50000000  0.10191083 1
    0.09872611  0.50000000  0.09872611 1
    0.09554140  0.50000000  0.09554140 1
    0.09235669  0.50000000  0.09235669 1
    0.08917197  0.50000000  0.08917197 1
    0.08598726  0.50000000  0.08598726 1
    0.08280255  0.50000000  0.08280255 1
    0.07961783  0.50000000  0.07961783 1
    0.07643312  0.50000000  0.07643312 1
    0.07324841  0.50000000  0.07324841 1
    0.07006369  0.50000000  0.07006369 1
    0.06687898  0.50000000  0.06687898 1
    0.06369427  0.50000000  0.06369427 1
    0.06050955  0.50000000  0.06050955 1