&CONTROL
  calculation = 'bands',
  prefix = 'nb',
  pseudo_dir = '../../pseudo/',
  verbosity = 'low',
/
&SYSTEM
  degauss = 0.015,
  ecutrho = 340,
  ecutwfc = 85.0,
  ibrav = 0,
  nbnd = 14,
  nosym = .FALSE.,
  occupations = 'smearing',
  smearing = 'gauss',
  nat = 1,
  ntyp = 1,
/
&ELECTRONS
  conv_thr = 1d-10,
  diagonalization = 'davidson',
  electron_maxstep = 40,
  mixing_beta = 0.7,
/
&IONS
/
&CELL
/
ATOMIC_SPECIES
  Nb  92.9064 Nb.upf
ATOMIC_POSITIONS crystal
  Nb 0.000000000000 0.000000000000 0.000000000000
CELL_PARAMETERS angstrom
      1.5328682310      1.5328682310      1.5328682310
      1.5328682310     -1.5328682310     -1.5328682310
     -1.5328682310      1.5328682310     -1.5328682310
K_POINTS crystal
853
    0.00000000  0.00000000  0.00000000 1
    0.00242718  -0.00242718  0.00242718 1
    0.00485437  -0.00485437  0.00485437 1
    0.00728155  -0.00728155  0.00728155 1
    0.00970874  -0.00970874  0.00970874 1
    0.01213592  -0.01213592  0.01213592 1
    0.01456311  -0.01456311  0.01456311 1
    0.01699029  -0.01699029  0.01699029 1
    0.01941748  -0.01941748  0.01941748 1
    0.02184466  -0.02184466  0.02184466 1
    0.02427184  -0.02427184  0.02427184 1
    0.02669903  -0.02669903  0.02669903 1
    0.02912621  -0.02912621  0.02912621 1
    0.03155340  -0.03155340  0.03155340 1
    0.03398058  -0.03398058  0.03398058 1
    0.03640777  -0.03640777  0.03640777 1
    0.03883495  -0.03883495  0.03883495 1
    0.04126214  -0.04126214  0.04126214 1
    0.04368932  -0.04368932  0.04368932 1
    0.04611650  -0.04611650  0.04611650 1
    0.04854369  -0.04854369  0.04854369 1
    0.05097087  -0.05097087  0.05097087 1
    0.05339806  -0.05339806  0.05339806 1
    0.05582524  -0.05582524  0.05582524 1
    0.05825243  -0.05825243  0.05825243 1
    0.06067961  -0.06067961  0.06067961 1
    0.06310680  -0.06310680  0.06310680 1
    0.06553398  -0.06553398  0.06553398 1
    0.06796117  -0.06796117  0.06796117 1
    0.07038835  -0.07038835  0.07038835 1
    0.07281553  -0.07281553  0.07281553 1
    0.07524272  -0.07524272  0.07524272 1
    0.07766990  -0.07766990  0.07766990 1
    0.08009709  -0.08009709  0.08009709 1
    0.08252427  -0.08252427  0.08252427 1
    0.08495146  -0.08495146  0.08495146 1
    0.08737864  -0.08737864  0.08737864 1
    0.08980583  -0.08980583  0.08980583 1
    0.09223301  -0.09223301  0.09223301 1
    0.09466019  -0.09466019  0.09466019 1
    0.09708738  -0.09708738  0.09708738 1
    0.09951456  -0.09951456  0.09951456 1
    0.10194175  -0.10194175  0.10194175 1
    0.10436893  -0.10436893  0.10436893 1
    0.10679612  -0.10679612  0.10679612 1
    0.10922330  -0.10922330  0.10922330 1
    0.11165049  -0.11165049  0.11165049 1
    0.11407767  -0.11407767  0.11407767 1
    0.11650485  -0.11650485  0.11650485 1
    0.11893204  -0.11893204  0.11893204 1
    0.12135922  -0.12135922  0.12135922 1
    0.12378641  -0.12378641  0.12378641 1
    0.12621359  -0.12621359  0.12621359 1
    0.12864078  -0.12864078  0.12864078 1
    0.13106796  -0.13106796  0.13106796 1
    0.13349515  -0.13349515  0.13349515 1
    0.13592233  -0.13592233  0.13592233 1
    0.13834951  -0.13834951  0.13834951 1
    0.14077670  -0.14077670  0.14077670 1
    0.14320388  -0.14320388  0.14320388 1
    0.14563107  -0.14563107  0.14563107 1
    0.14805825  -0.14805825  0.14805825 1
    0.15048544  -0.15048544  0.15048544 1
    0.15291262  -0.15291262  0.15291262 1
    0.15533981  -0.15533981  0.15533981 1
    0.15776699  -0.15776699  0.15776699 1
    0.16019417  -0.16019417  0.16019417 1
    0.16262136  -0.16262136  0.16262136 1
    0.16504854  -0.16504854  0.16504854 1
    0.16747573  -0.16747573  0.16747573 1
    0.16990291  -0.16990291  0.16990291 1
    0.17233010  -0.17233010  0.17233010 1
    0.17475728  -0.17475728  0.17475728 1
    0.17718447  -0.17718447  0.17718447 1
    0.17961165  -0.17961165  0.17961165 1
    0.18203883  -0.18203883  0.18203883 1
    0.18446602  -0.18446602  0.18446602 1
    0.18689320  -0.18689320  0.18689320 1
    0.18932039  -0.18932039  0.18932039 1
    0.19174757  -0.19174757  0.19174757 1
    0.19417476  -0.19417476  0.19417476 1
    0.19660194  -0.19660194  0.19660194 1
    0.19902913  -0.19902913  0.19902913 1
    0.20145631  -0.20145631  0.20145631 1
    0.20388350  -0.20388350  0.20388350 1
    0.20631068  -0.20631068  0.20631068 1
    0.20873786  -0.20873786  0.20873786 1
    0.21116505  -0.21116505  0.21116505 1
    0.21359223  -0.21359223  0.21359223 1
    0.21601942  -0.21601942  0.21601942 1
    0.21844660  -0.21844660  0.21844660 1
    0.22087379  -0.22087379  0.22087379 1
    0.22330097  -0.22330097  0.22330097 1
    0.22572816  -0.22572816  0.22572816 1
    0.22815534  -0.22815534  0.22815534 1
    0.23058252  -0.23058252  0.23058252 1
    0.23300971  -0.23300971  0.23300971 1
    0.23543689  -0.23543689  0.23543689 1
    0.23786408  -0.23786408  0.23786408 1
    0.24029126  -0.24029126  0.24029126 1
    0.24271845  -0.24271845  0.24271845 1
    0.24514563  -0.24514563  0.24514563 1
    0.24757282  -0.24757282  0.24757282 1
    0.25000000  -0.25000000  0.25000000 1
    0.25242718  -0.25242718  0.25242718 1
    0.25485437  -0.25485437  0.25485437 1
    0.25728155  -0.25728155  0.25728155 1
    0.25970874  -0.25970874  0.25970874 1
    0.26213592  -0.26213592  0.26213592 1
    0.26456311  -0.26456311  0.26456311 1
    0.26699029  -0.26699029  0.26699029 1
    0.26941748  -0.26941748  0.26941748 1
    0.27184466  -0.27184466  0.27184466 1
    0.27427184  -0.27427184  0.27427184 1
    0.27669903  -0.27669903  0.27669903 1
    0.27912621  -0.27912621  0.27912621 1
    0.28155340  -0.28155340  0.28155340 1
    0.28398058  -0.28398058  0.28398058 1
    0.28640777  -0.28640777  0.28640777 1
    0.28883495  -0.28883495  0.28883495 1
    0.29126214  -0.29126214  0.29126214 1
    0.29368932  -0.29368932  0.29368932 1
    0.29611650  -0.29611650  0.29611650 1
    0.29854369  -0.29854369  0.29854369 1
    0.30097087  -0.30097087  0.30097087 1
    0.30339806  -0.30339806  0.30339806 1
    0.30582524  -0.30582524  0.30582524 1
    0.30825243  -0.30825243  0.30825243 1
    0.31067961  -0.31067961  0.31067961 1
    0.31310680  -0.31310680  0.31310680 1
    0.31553398  -0.31553398  0.31553398 1
    0.31796117  -0.31796117  0.31796117 1
    0.32038835  -0.32038835  0.32038835 1
    0.32281553  -0.32281553  0.32281553 1
    0.32524272  -0.32524272  0.32524272 1
    0.32766990  -0.32766990  0.32766990 1
    0.33009709  -0.33009709  0.33009709 1
    0.33252427  -0.33252427  0.33252427 1
    0.33495146  -0.33495146  0.33495146 1
    0.33737864  -0.33737864  0.33737864 1
    0.33980583  -0.33980583  0.33980583 1
    0.34223301  -0.34223301  0.34223301 1
    0.34466019  -0.34466019  0.34466019 1
    0.34708738  -0.34708738  0.34708738 1
    0.34951456  -0.34951456  0.34951456 1
    0.35194175  -0.35194175  0.35194175 1
    0.35436893  -0.35436893  0.35436893 1
    0.35679612  -0.35679612  0.35679612 1
    0.35922330  -0.35922330  0.35922330 1
    0.36165049  -0.36165049  0.36165049 1
    0.36407767  -0.36407767  0.36407767 1
    0.36650485  -0.36650485  0.36650485 1
    0.36893204  -0.36893204  0.36893204 1
    0.37135922  -0.37135922  0.37135922 1
    0.37378641  -0.37378641  0.37378641 1
    0.37621359  -0.37621359  0.37621359 1
    0.37864078  -0.37864078  0.37864078 1
    0.38106796  -0.38106796  0.38106796 1
    0.38349515  -0.38349515  0.38349515 1
    0.38592233  -0.38592233  0.38592233 1
    0.38834951  -0.38834951  0.38834951 1
    0.39077670  -0.39077670  0.39077670 1
    0.39320388  -0.39320388  0.39320388 1
    0.39563107  -0.39563107  0.39563107 1
    0.39805825  -0.39805825  0.39805825 1
    0.40048544  -0.40048544  0.40048544 1
    0.40291262  -0.40291262  0.40291262 1
    0.40533981  -0.40533981  0.40533981 1
    0.40776699  -0.40776699  0.40776699 1
    0.41019417  -0.41019417  0.41019417 1
    0.41262136  -0.41262136  0.41262136 1
    0.41504854  -0.41504854  0.41504854 1
    0.41747573  -0.41747573  0.41747573 1
    0.41990291  -0.41990291  0.41990291 1
    0.42233010  -0.42233010  0.42233010 1
    0.42475728  -0.42475728  0.42475728 1
    0.42718447  -0.42718447  0.42718447 1
    0.42961165  -0.42961165  0.42961165 1
    0.43203883  -0.43203883  0.43203883 1
    0.43446602  -0.43446602  0.43446602 1
    0.43689320  -0.43689320  0.43689320 1
    0.43932039  -0.43932039  0.43932039 1
    0.44174757  -0.44174757  0.44174757 1
    0.44417476  -0.44417476  0.44417476 1
    0.44660194  -0.44660194  0.44660194 1
    0.44902913  -0.44902913  0.44902913 1
    0.45145631  -0.45145631  0.45145631 1
    0.45388350  -0.45388350  0.45388350 1
    0.45631068  -0.45631068  0.45631068 1
    0.45873786  -0.45873786  0.45873786 1
    0.46116505  -0.46116505  0.46116505 1
    0.46359223  -0.46359223  0.46359223 1
    0.46601942  -0.46601942  0.46601942 1
    0.46844660  -0.46844660  0.46844660 1
    0.47087379  -0.47087379  0.47087379 1
    0.47330097  -0.47330097  0.47330097 1
    0.47572816  -0.47572816  0.47572816 1
    0.47815534  -0.47815534  0.47815534 1
    0.48058252  -0.48058252  0.48058252 1
    0.48300971  -0.48300971  0.48300971 1
    0.48543689  -0.48543689  0.48543689 1
    0.48786408  -0.48786408  0.48786408 1
    0.49029126  -0.49029126  0.49029126 1
    0.49271845  -0.49271845  0.49271845 1
    0.49514563  -0.49514563  0.49514563 1
    0.49757282  -0.49757282  0.49757282 1
    0.50000000  -0.50000000  0.50000000 1
    0.49655172  -0.49655172  0.50000000 1
    0.49310345  -0.49310345  0.50000000 1
    0.48965517  -0.48965517  0.50000000 1
    0.48620690  -0.48620690  0.50000000 1
    0.48275862  -0.48275862  0.50000000 1
    0.47931034  -0.47931034  0.50000000 1
    0.47586207  -0.47586207  0.50000000 1
    0.47241379  -0.47241379  0.50000000 1
    0.46896552  -0.46896552  0.50000000 1
    0.46551724  -0.46551724  0.50000000 1
    0.46206897  -0.46206897  0.50000000 1
    0.45862069  -0.45862069  0.50000000 1
    0.45517241  -0.45517241  0.50000000 1
    0.45172414  -0.45172414  0.50000000 1
    0.44827586  -0.44827586  0.50000000 1
    0.44482759  -0.44482759  0.50000000 1
    0.44137931  -0.44137931  0.50000000 1
    0.43793103  -0.43793103  0.50000000 1
    0.43448276  -0.43448276  0.50000000 1
    0.43103448  -0.43103448  0.50000000 1
    0.42758621  -0.42758621  0.50000000 1
    0.42413793  -0.42413793  0.50000000 1
    0.42068966  -0.42068966  0.50000000 1
    0.41724138  -0.41724138  0.50000000 1
    0.41379310  -0.41379310  0.50000000 1
    0.41034483  -0.41034483  0.50000000 1
    0.40689655  -0.40689655  0.50000000 1
    0.40344828  -0.40344828  0.50000000 1
    0.40000000  -0.40000000  0.50000000 1
    0.39655172  -0.39655172  0.50000000 1
    0.39310345  -0.39310345  0.50000000 1
    0.38965517  -0.38965517  0.50000000 1
    0.38620690  -0.38620690  0.50000000 1
    0.38275862  -0.38275862  0.50000000 1
    0.37931034  -0.37931034  0.50000000 1
    0.37586207  -0.37586207  0.50000000 1
    0.37241379  -0.37241379  0.50000000 1
    0.36896552  -0.36896552  0.50000000 1
    0.36551724  -0.36551724  0.50000000 1
    0.36206897  -0.36206897  0.50000000 1
    0.35862069  -0.35862069  0.50000000 1
    0.35517241  -0.35517241  0.50000000 1
    0.35172414  -0.35172414  0.50000000 1
    0.34827586  -0.34827586  0.50000000 1
    0.34482759  -0.34482759  0.50000000 1
    0.34137931  -0.34137931  0.50000000 1
    0.33793103  -0.33793103  0.50000000 1
    0.33448276  -0.33448276  0.50000000 1
    0.33103448  -0.33103448  0.50000000 1
    0.32758621  -0.32758621  0.50000000 1
    0.32413793  -0.32413793  0.50000000 1
    0.32068966  -0.32068966  0.50000000 1
    0.31724138  -0.31724138  0.50000000 1
    0.31379310  -0.31379310  0.50000000 1
    0.31034483  -0.31034483  0.50000000 1
    0.30689655  -0.30689655  0.50000000 1
    0.30344828  -0.30344828  0.50000000 1
    0.30000000  -0.30000000  0.50000000 1
    0.29655172  -0.29655172  0.50000000 1
    0.29310345  -0.29310345  0.50000000 1
    0.28965517  -0.28965517  0.50000000 1
    0.28620690  -0.28620690  0.50000000 1
    0.28275862  -0.28275862  0.50000000 1
    0.27931034  -0.27931034  0.50000000 1
    0.27586207  -0.27586207  0.50000000 1
    0.27241379  -0.27241379  0.50000000 1
    0.26896552  -0.26896552  0.50000000 1
    0.26551724  -0.26551724  0.50000000 1
    0.26206897  -0.26206897  0.50000000 1
    0.25862069  -0.25862069  0.50000000 1
    0.25517241  -0.25517241  0.50000000 1
    0.25172414  -0.25172414  0.50000000 1
    0.24827586  -0.24827586  0.50000000 1
    0.24482759  -0.24482759  0.50000000 1
    0.24137931  -0.24137931  0.50000000 1
    0.23793103  -0.23793103  0.50000000 1
    0.23448276  -0.23448276  0.50000000 1
    0.23103448  -0.23103448  0.50000000 1
    0.22758621  -0.22758621  0.50000000 1
    0.22413793  -0.22413793  0.50000000 1
    0.22068966  -0.22068966  0.50000000 1
    0.21724138  -0.21724138  0.50000000 1
    0.21379310  -0.21379310  0.50000000 1
    0.21034483  -0.21034483  0.50000000 1
    0.20689655  -0.20689655  0.50000000 1
    0.20344828  -0.20344828  0.50000000 1
    0.20000000  -0.20000000  0.50000000 1
    0.19655172  -0.19655172  0.50000000 1
    0.19310345  -0.19310345  0.50000000 1
    0.18965517  -0.18965517  0.50000000 1
    0.18620690  -0.18620690  0.50000000 1
    0.18275862  -0.18275862  0.50000000 1
    0.17931034  -0.17931034  0.50000000 1
    0.17586207  -0.17586207  0.50000000 1
    0.17241379  -0.17241379  0.50000000 1
    0.16896552  -0.16896552  0.50000000 1
    0.16551724  -0.16551724  0.50000000 1
    0.16206897  -0.16206897  0.50000000 1
    0.15862069  -0.15862069  0.50000000 1
    0.15517241  -0.15517241  0.50000000 1
    0.15172414  -0.15172414  0.50000000 1
    0.14827586  -0.14827586  0.50000000 1
    0.14482759  -0.14482759  0.50000000 1
    0.14137931  -0.14137931  0.50000000 1
    0.13793103  -0.13793103  0.50000000 1
    0.13448276  -0.13448276  0.50000000 1
    0.13103448  -0.13103448  0.50000000 1
    0.12758621  -0.12758621  0.50000000 1
    0.12413793  -0.12413793  0.50000000 1
    0.12068966  -0.12068966  0.50000000 1
    0.11724138  -0.11724138  0.50000000 1
    0.11379310  -0.11379310  0.50000000 1
    0.11034483  -0.11034483  0.50000000 1
    0.10689655  -0.10689655  0.50000000 1
    0.10344828  -0.10344828  0.50000000 1
    0.10000000  -0.10000000  0.50000000 1
    0.09655172  -0.09655172  0.50000000 1
    0.09310345  -0.09310345  0.50000000 1
    0.08965517  -0.08965517  0.50000000 1
    0.08620690  -0.08620690  0.50000000 1
    0.08275862  -0.08275862  0.50000000 1
    0.07931034  -0.07931034  0.50000000 1
    0.07586207  -0.07586207  0.50000000 1
    0.07241379  -0.07241379  0.50000000 1
    0.06896552  -0.06896552  0.50000000 1
    0.06551724  -0.06551724  0.50000000 1
    0.06206897  -0.06206897  0.50000000 1
    0.05862069  -0.05862069  0.50000000 1
    0.05517241  -0.05517241  0.50000000 1
    0.05172414  -0.05172414  0.50000000 1
    0.04827586  -0.04827586  0.50000000 1
    0.04482759  -0.04482759  0.50000000 1
    0.04137931  -0.04137931  0.50000000 1
    0.03793103  -0.03793103  0.50000000 1
    0.03448276  -0.03448276  0.50000000 1
    0.03103448  -0.03103448  0.50000000 1
    0.02758621  -0.02758621  0.50000000 1
    0.02413793  -0.02413793  0.50000000 1
    0.02068966  -0.02068966  0.50000000 1
    0.01724138  -0.01724138  0.50000000 1
    0.01379310  -0.01379310  0.50000000 1
    0.01034483  -0.01034483  0.50000000 1
    0.00689655  -0.00689655  0.50000000 1
    0.00344828  -0.00344828  0.50000000 1
    0.00000000  0.00000000  0.50000000 1
    0.00000000  0.00000000  0.49655172 1
    0.00000000  0.00000000  0.49310345 1
    0.00000000  0.00000000  0.48965517 1
    0.00000000  0.00000000  0.48620690 1
    0.00000000  0.00000000  0.48275862 1
    0.00000000  0.00000000  0.47931034 1
    0.00000000  0.00000000  0.47586207 1
    0.00000000  0.00000000  0.47241379 1
    0.00000000  0.00000000  0.46896552 1
    0.00000000  0.00000000  0.46551724 1
    0.00000000  0.00000000  0.46206897 1
    0.00000000  0.00000000  0.45862069 1
    0.00000000  0.00000000  0.45517241 1
    0.00000000  0.00000000  0.45172414 1
    0.00000000  0.00000000  0.44827586 1
    0.00000000  0.00000000  0.44482759 1
    0.00000000  0.00000000  0.44137931 1
    0.00000000  0.00000000  0.43793103 1
    0.00000000  0.00000000  0.43448276 1
    0.00000000  0.00000000  0.43103448 1
    0.00000000  0.00000000  0.42758621 1
    0.00000000  0.00000000  0.42413793 1
    0.00000000  0.00000000  0.42068966 1
    0.00000000  0.00000000  0.41724138 1
    0.00000000  0.00000000  0.41379310 1
    0.00000000  0.00000000  0.41034483 1
    0.00000000  0.00000000  0.40689655 1
    0.00000000  0.00000000  0.40344828 1
    0.00000000  0.00000000  0.40000000 1
    0.00000000  0.00000000  0.39655172 1
    0.00000000  0.00000000  0.39310345 1
    0.00000000  0.00000000  0.38965517 1
    0.00000000  0.00000000  0.38620690 1
    0.00000000  0.00000000  0.38275862 1
    0.00000000  0.00000000  0.37931034 1
    0.00000000  0.00000000  0.37586207 1
    0.00000000  0.00000000  0.37241379 1
    0.00000000  0.00000000  0.36896552 1
    0.00000000  0.00000000  0.36551724 1
    0.00000000  0.00000000  0.36206897 1
    0.00000000  0.00000000  0.35862069 1
    0.00000000  0.00000000  0.35517241 1
    0.00000000  0.00000000  0.35172414 1
    0.00000000  0.00000000  0.34827586 1
    0.00000000  0.00000000  0.34482759 1
    0.00000000  0.00000000  0.34137931 1
    0.00000000  0.00000000  0.33793103 1
    0.00000000  0.00000000  0.33448276 1
    0.00000000  0.00000000  0.33103448 1
    0.00000000  0.00000000  0.32758621 1
    0.00000000  0.00000000  0.32413793 1
    0.00000000  0.00000000  0.32068966 1
    0.00000000  0.00000000  0.31724138 1
    0.00000000  0.00000000  0.31379310 1
    0.00000000  0.00000000  0.31034483 1
    0.00000000  0.00000000  0.30689655 1
    0.00000000  0.00000000  0.30344828 1
    0.00000000  0.00000000  0.30000000 1
    0.00000000  0.00000000  0.29655172 1
    0.00000000  0.00000000  0.29310345 1
    0.00000000  0.00000000  0.28965517 1
    0.00000000  0.00000000  0.28620690 1
    0.00000000  0.00000000  0.28275862 1
    0.00000000  0.00000000  0.27931034 1
    0.00000000  0.00000000  0.27586207 1
    0.00000000  0.00000000  0.27241379 1
    0.00000000  0.00000000  0.26896552 1
    0.00000000  0.00000000  0.26551724 1
    0.00000000  0.00000000  0.26206897 1
    0.00000000  0.00000000  0.25862069 1
    0.00000000  0.00000000  0.25517241 1
    0.00000000  0.00000000  0.25172414 1
    0.00000000  0.00000000  0.24827586 1
    0.00000000  0.00000000  0.24482759 1
    0.00000000  0.00000000  0.24137931 1
    0.00000000  0.00000000  0.23793103 1
    0.00000000  0.00000000  0.23448276 1
    0.00000000  0.00000000  0.23103448 1
    0.00000000  0.00000000  0.22758621 1
    0.00000000  0.00000000  0.22413793 1
    0.00000000  0.00000000  0.22068966 1
    0.00000000  0.00000000  0.21724138 1
    0.00000000  0.00000000  0.21379310 1
    0.00000000  0.00000000  0.21034483 1
    0.00000000  0.00000000  0.20689655 1
    0.00000000  0.00000000  0.20344828 1
    0.00000000  0.00000000  0.20000000 1
    0.00000000  0.00000000  0.19655172 1
    0.00000000  0.00000000  0.19310345 1
    0.00000000  0.00000000  0.18965517 1
    0.00000000  0.00000000  0.18620690 1
    0.00000000  0.00000000  0.18275862 1
    0.00000000  0.00000000  0.17931034 1
    0.00000000  0.00000000  0.17586207 1
    0.00000000  0.00000000  0.17241379 1
    0.00000000  0.00000000  0.16896552 1
    0.00000000  0.00000000  0.16551724 1
    0.00000000  0.00000000  0.16206897 1
    0.00000000  0.00000000  0.15862069 1
    0.00000000  0.00000000  0.15517241 1
    0.00000000  0.00000000  0.15172414 1
    0.00000000  0.00000000  0.14827586 1
    0.00000000  0.00000000  0.14482759 1
    0.00000000  0.00000000  0.14137931 1
    0.00000000  0.00000000  0.13793103 1
    0.00000000  0.00000000  0.13448276 1
    0.00000000  0.00000000  0.13103448 1
    0.00000000  0.00000000  0.12758621 1
    0.00000000  0.00000000  0.12413793 1
    0.00000000  0.00000000  0.12068966 1
    0.00000000  0.00000000  0.11724138 1
    0.00000000  0.00000000  0.11379310 1
    0.00000000  0.00000000  0.11034483 1
    0.00000000  0.00000000  0.10689655 1
    0.00000000  0.00000000  0.10344828 1
    0.00000000  0.00000000  0.10000000 1
    0.00000000  0.00000000  0.09655172 1
    0.00000000  0.00000000  0.09310345 1
    0.00000000  0.00000000  0.08965517 1
    0.00000000  0.00000000  0.08620690 1
    0.00000000  0.00000000  0.08275862 1
    0.00000000  0.00000000  0.07931034 1
    0.00000000  0.00000000  0.07586207 1
    0.00000000  0.00000000  0.07241379 1
    0.00000000  0.00000000  0.06896552 1
    0.00000000  0.00000000  0.06551724 1
    0.00000000  0.00000000  0.06206897 1
    0.00000000  0.00000000  0.05862069 1
    0.00000000  0.00000000  0.05517241 1
    0.00000000  0.00000000  0.05172414 1
    0.00000000  0.00000000  0.04827586 1
    0.00000000  0.00000000  0.04482759 1
    0.00000000  0.00000000  0.04137931 1
    0.00000000  0.00000000  0.03793103 1
    0.00000000  0.00000000  0.03448276 1
    0.00000000  0.00000000  0.03103448 1
    0.00000000  0.00000000  0.02758621 1
    0.00000000  0.00000000  0.02413793 1
    0.00000000  0.00000000  0.02068966 1
    0.00000000  0.00000000  0.01724138 1
    0.00000000  0.00000000  0.01379310 1
    0.00000000  0.00000000  0.01034483 1
    0.00000000  0.00000000  0.00689655 1
    0.00000000  0.00000000  0.00344828 1
    0.00000000  0.00000000  0.00000000 1
    0.00140449  0.00140449  0.00140449 1
    0.00280899  0.00280899  0.00280899 1
    0.00421348  0.00421348  0.00421348 1
    0.00561798  0.00561798  0.00561798 1
    0.00702247  0.00702247  0.00702247 1
    0.00842697  0.00842697  0.00842697 1
    0.00983146  0.00983146  0.00983146 1
    0.01123596  0.01123596  0.01123596 1
    0.01264045  0.01264045  0.01264045 1
    0.01404494  0.01404494  0.01404494 1
    0.01544944  0.01544944  0.01544944 1
    0.01685393  0.01685393  0.01685393 1
    0.01825843  0.01825843  0.01825843 1
    0.01966292  0.01966292  0.01966292 1
    0.02106742  0.02106742  0.02106742 1
    0.02247191  0.02247191  0.02247191 1
    0.02387640  0.02387640  0.02387640 1
    0.02528090  0.02528090  0.02528090 1
    0.02668539  0.02668539  0.02668539 1
    0.02808989  0.02808989  0.02808989 1
    0.02949438  0.02949438  0.02949438 1
    0.03089888  0.03089888  0.03089888 1
    0.03230337  0.03230337  0.03230337 1
    0.03370787  0.03370787  0.03370787 1
    0.03511236  0.03511236  0.03511236 1
    0.03651685  0.03651685  0.03651685 1
    0.03792135  0.03792135  0.03792135 1
    0.03932584  0.03932584  0.03932584 1
    0.04073034  0.04073034  0.04073034 1
    0.04213483  0.04213483  0.04213483 1
    0.04353933  0.04353933  0.04353933 1
    0.04494382  0.04494382  0.04494382 1
    0.04634831  0.04634831  0.04634831 1
    0.04775281  0.04775281  0.04775281 1
    0.04915730  0.04915730  0.04915730 1
    0.05056180  0.05056180  0.05056180 1
    0.05196629  0.05196629  0.05196629 1
    0.05337079  0.05337079  0.05337079 1
    0.05477528  0.05477528  0.05477528 1
    0.05617978  0.05617978  0.05617978 1
    0.05758427  0.05758427  0.05758427 1
    0.05898876  0.05898876  0.05898876 1
    0.06039326  0.06039326  0.06039326 1
    0.06179775  0.06179775  0.06179775 1
    0.06320225  0.06320225  0.06320225 1
    0.06460674  0.06460674  0.06460674 1
    0.06601124  0.06601124  0.06601124 1
    0.06741573  0.06741573  0.06741573 1
    0.06882022  0.06882022  0.06882022 1
    0.07022472  0.07022472  0.07022472 1
    0.07162921  0.07162921  0.07162921 1
    0.07303371  0.07303371  0.07303371 1
    0.07443820  0.07443820  0.07443820 1
    0.07584270  0.07584270  0.07584270 1
    0.07724719  0.07724719  0.07724719 1
    0.07865169  0.07865169  0.07865169 1
    0.08005618  0.08005618  0.08005618 1
    0.08146067  0.08146067  0.08146067 1
    0.08286517  0.08286517  0.08286517 1
    0.08426966  0.08426966  0.08426966 1
    0.08567416  0.08567416  0.08567416 1
    0.08707865  0.08707865  0.08707865 1
    0.08848315  0.08848315  0.08848315 1
    0.08988764  0.08988764  0.08988764 1
    0.09129213  0.09129213  0.09129213 1
    0.09269663  0.09269663  0.09269663 1
    0.09410112  0.09410112  0.09410112 1
    0.09550562  0.09550562  0.09550562 1
    0.09691011  0.09691011  0.09691011 1
    0.09831461  0.09831461  0.09831461 1
    0.09971910  0.09971910  0.09971910 1
    0.10112360  0.10112360  0.10112360 1
    0.10252809  0.10252809  0.10252809 1
    0.10393258  0.10393258  0.10393258 1
    0.10533708  0.10533708  0.10533708 1
    0.10674157  0.10674157  0.10674157 1
    0.10814607  0.10814607  0.10814607 1
    0.10955056  0.10955056  0.10955056 1
    0.11095506  0.11095506  0.11095506 1
    0.11235955  0.11235955  0.11235955 1
    0.11376404  0.11376404  0.11376404 1
    0.11516854  0.11516854  0.11516854 1
    0.11657303  0.11657303  0.11657303 1
    0.11797753  0.11797753  0.11797753 1
    0.11938202  0.11938202  0.11938202 1
    0.12078652  0.12078652  0.12078652 1
    0.12219101  0.12219101  0.12219101 1
    0.12359551  0.12359551  0.12359551 1
    0.12500000  0.12500000  0.12500000 1
    0.12640449  0.12640449  0.12640449 1
    0.12780899  0.12780899  0.12780899 1
    0.12921348  0.12921348  0.12921348 1
    0.13061798  0.13061798  0.13061798 1
    0.13202247  0.13202247  0.13202247 1
    0.13342697  0.13342697  0.13342697 1
    0.13483146  0.13483146  0.13483146 1
    0.13623596  0.13623596  0.13623596 1
    0.13764045  0.13764045  0.13764045 1
    0.13904494  0.13904494  0.13904494 1
    0.14044944  0.14044944  0.14044944 1
    0.14185393  0.14185393  0.14185393 1
    0.14325843  0.14325843  0.14325843 1
    0.14466292  0.14466292  0.14466292 1
    0.14606742  0.14606742  0.14606742 1
    0.14747191  0.14747191  0.14747191 1
    0.14887640  0.14887640  0.14887640 1
    0.15028090  0.15028090  0.15028090 1
    0.15168539  0.15168539  0.15168539 1
    0.15308989  0.15308989  0.15308989 1
    0.15449438  0.15449438  0.15449438 1
    0.15589888  0.15589888  0.15589888 1
    0.15730337  0.15730337  0.15730337 1
    0.15870787  0.15870787  0.15870787 1
    0.16011236  0.16011236  0.16011236 1
    0.16151685  0.16151685  0.16151685 1
    0.16292135  0.16292135  0.16292135 1
    0.16432584  0.16432584  0.16432584 1
    0.16573034  0.16573034  0.16573034 1
    0.16713483  0.16713483  0.16713483 1
    0.16853933  0.16853933  0.16853933 1
    0.16994382  0.16994382  0.16994382 1
    0.17134831  0.17134831  0.17134831 1
    0.17275281  0.17275281  0.17275281 1
    0.17415730  0.17415730  0.17415730 1
    0.17556180  0.17556180  0.17556180 1
    0.17696629  0.17696629  0.17696629 1
    0.17837079  0.17837079  0.17837079 1
    0.17977528  0.17977528  0.17977528 1
    0.18117978  0.18117978  0.18117978 1
    0.18258427  0.18258427  0.18258427 1
    0.18398876  0.18398876  0.18398876 1
    0.18539326  0.18539326  0.18539326 1
    0.18679775  0.18679775  0.18679775 1
    0.18820225  0.18820225  0.18820225 1
    0.18960674  0.18960674  0.18960674 1
    0.19101124  0.19101124  0.19101124 1
    0.19241573  0.19241573  0.19241573 1
    0.19382022  0.19382022  0.19382022 1
    0.19522472  0.19522472  0.19522472 1
    0.19662921  0.19662921  0.19662921 1
    0.19803371  0.19803371  0.19803371 1
    0.19943820  0.19943820  0.19943820 1
    0.20084270  0.20084270  0.20084270 1
    0.20224719  0.20224719  0.20224719 1
    0.20365169  0.20365169  0.20365169 1
    0.20505618  0.20505618  0.20505618 1
    0.20646067  0.20646067  0.20646067 1
    0.20786517  0.20786517  0.20786517 1
    0.20926966  0.20926966  0.20926966 1
    0.21067416  0.21067416  0.21067416 1
    0.21207865  0.21207865  0.21207865 1
    0.21348315  0.21348315  0.21348315 1
    0.21488764  0.21488764  0.21488764 1
    0.21629213  0.21629213  0.21629213 1
    0.21769663  0.21769663  0.21769663 1
    0.21910112  0.21910112  0.21910112 1
    0.22050562  0.22050562  0.22050562 1
    0.22191011  0.22191011  0.22191011 1
    0.22331461  0.22331461  0.22331461 1
    0.22471910  0.22471910  0.22471910 1
    0.22612360  0.22612360  0.22612360 1
    0.22752809  0.22752809  0.22752809 1
    0.22893258  0.22893258  0.22893258 1
    0.23033708  0.23033708  0.23033708 1
    0.23174157  0.23174157  0.23174157 1
    0.23314607  0.23314607  0.23314607 1
    0.23455056  0.23455056  0.23455056 1
    0.23595506  0.23595506  0.23595506 1
    0.23735955  0.23735955  0.23735955 1
    0.23876404  0.23876404  0.23876404 1
    0.24016854  0.24016854  0.24016854 1
    0.24157303  0.24157303  0.24157303 1
    0.24297753  0.24297753  0.24297753 1
    0.24438202  0.24438202  0.24438202 1
    0.24578652  0.24578652  0.24578652 1
    0.24719101  0.24719101  0.24719101 1
    0.24859551  0.24859551  0.24859551 1
    0.25000000  0.25000000  0.25000000 1
    0.25140449  0.24578652  0.25140449 1
    0.25280899  0.24157303  0.25280899 1
    0.25421348  0.23735955  0.25421348 1
    0.25561798  0.23314607  0.25561798 1
    0.25702247  0.22893258  0.25702247 1
    0.25842697  0.22471910  0.25842697 1
    0.25983146  0.22050562  0.25983146 1
    0.26123596  0.21629213  0.26123596 1
    0.26264045  0.21207865  0.26264045 1
    0.26404494  0.20786517  0.26404494 1
    0.26544944  0.20365169  0.26544944 1
    0.26685393  0.19943820  0.26685393 1
    0.26825843  0.19522472  0.26825843 1
    0.26966292  0.19101124  0.26966292 1
    0.27106742  0.18679775  0.27106742 1
    0.27247191  0.18258427  0.27247191 1
    0.27387640  0.17837079  0.27387640 1
    0.27528090  0.17415730  0.27528090 1
    0.27668539  0.16994382  0.27668539 1
    0.27808989  0.16573034  0.27808989 1
    0.27949438  0.16151685  0.27949438 1
    0.28089888  0.15730337  0.28089888 1
    0.28230337  0.15308989  0.28230337 1
    0.28370787  0.14887640  0.28370787 1
    0.28511236  0.14466292  0.28511236 1
    0.28651685  0.14044944  0.28651685 1
    0.28792135  0.13623596  0.28792135 1
    0.28932584  0.13202247  0.28932584 1
    0.29073034  0.12780899  0.29073034 1
    0.29213483  0.12359551  0.29213483 1