&CONTROL
  calculation = 'bands',
  prefix = 'nbti',
  pseudo_dir = '../../pseudo/',
  verbosity = 'low',
/
&SYSTEM
  degauss = 0.015,
  ecutrho = 340.0,
  ecutwfc = 85.0,
  ibrav = 0,
  nosym = .FALSE.,
  occupations = 'smearing',
  smearing = 'gauss',
  nat = 16,
  ntyp = 2,
  nbnd = 200,
/
&ELECTRONS
  conv_thr = 1d-10,
  electron_maxstep = 80,
  mixing_beta = 0.5,
  mixing_mode = 'local-TF',
/
&IONS
/
&CELL
/
ATOMIC_SPECIES
  Nb  92.9064 Nb.upf
  Ti  47.8670 Ti.upf
ATOMIC_POSITIONS crystal
  Ti 0.256700129400 0.743299846000 0.751661989400
  Ti 0.493299870600 0.506700154000 0.498338010600
  Ti 0.261344647500 0.738655298100 0.246167295900
  Ti 0.488655352500 0.511344701900 0.003832704100
  Ti 0.234692040100 0.238016524400 0.247744883200
  Ti -0.011983452200 0.484691901100 0.002255080700
  Ti 0.515307959900 0.011983475600 0.002255116800
  Ti 0.761983452200 0.765308098900 0.247744919300
  Nb 0.745539571600 0.254460386700 0.749720080500
  Nb 0.738258653600 0.261741508000 0.248107892400
  Nb 0.004460428400 -0.004460386700 0.500279919500
  Nb 0.011741346400 -0.011741508000 0.001892107600
  Nb -0.002467433700 0.499447707000 0.494921786100
  Nb 0.500552327000 0.002467476100 0.494921756500
  Nb 0.249447673000 0.247532523900 0.755078243500
  Nb 0.752467433700 0.750552293000 0.755078213900
CELL_PARAMETERS angstrom
      5.3906733490      0.0274567810     -0.0152869710
     -1.7645369530      5.0937727880      0.0152875460
     -0.0241269250      0.0170828000      8.7035250940
K_POINTS crystal
366
    -0.37500000  0.37500000  0.00000000 1
    -0.38235294  0.38235294  0.00000000 1
    -0.38970588  0.38970588  0.00000000 1
    -0.39705882  0.39705882  0.00000000 1
    -0.40441176  0.40441176  0.00000000 1
    -0.41176471  0.41176471  0.00000000 1
    -0.41911765  0.41911765  0.00000000 1
    -0.42647059  0.42647059  0.00000000 1
    -0.43382353  0.43382353  0.00000000 1
    -0.44117647  0.44117647  0.00000000 1
    -0.44852941  0.44852941  0.00000000 1
    -0.45588235  0.45588235  0.00000000 1
    -0.46323529  0.46323529  0.00000000 1
    -0.47058824  0.47058824  0.00000000 1
    -0.47794118  0.47794118  0.00000000 1
    -0.48529412  0.48529412  0.00000000 1
    -0.49264706  0.49264706  0.00000000 1
    -0.50000000  0.50000000  0.00000000 1
    -0.49295775  0.49295775  0.00000000 1
    -0.48591549  0.48591549  0.00000000 1
    -0.47887324  0.47887324  0.00000000 1
    -0.47183099  0.47183099  0.00000000 1
    -0.46478873  0.46478873  0.00000000 1
    -0.45774648  0.45774648  0.00000000 1
    -0.45070423  0.45070423  0.00000000 1
    -0.44366197  0.44366197  0.00000000 1
    -0.43661972  0.43661972  0.00000000 1
    -0.42957746  0.42957746  0.00000000 1
    -0.42253521  0.42253521  0.00000000 1
    -0.41549296  0.41549296  0.00000000 1
    -0.40845070  0.40845070  0.00000000 1
    -0.40140845  0.40140845  0.00000000 1
    -0.39436620  0.39436620  0.00000000 1
    -0.38732394  0.38732394  0.00000000 1
    -0.38028169  0.38028169  0.00000000 1
    -0.37323944  0.37323944  0.00000000 1
    -0.36619718  0.36619718  0.00000000 1
    -0.35915493  0.35915493  0.00000000 1
    -0.35211268  0.35211268  0.00000000 1
    -0.34507042  0.34507042  0.00000000 1
    -0.33802817  0.33802817  0.00000000 1
    -0.33098592  0.33098592  0.00000000 1
    -0.32394366  0.32394366  0.00000000 1
    -0.31690141  0.31690141  0.00000000 1
    -0.30985915  0.30985915  0.00000000 1
    -0.30281690  0.30281690  0.00000000 1
    -0.29577465  0.29577465  0.00000000 1
    -0.28873239  0.28873239  0.00000000 1
    -0.28169014  0.28169014  0.00000000 1
    -0.27464789  0.27464789  0.00000000 1
    -0.26760563  0.26760563  0.00000000 1
    -0.26056338  0.26056338  0.00000000 1
    -0.25352113  0.25352113  0.00000000 1
    -0.24647887  0.24647887  0.00000000 1
    -0.23943662  0.23943662  0.00000000 1
    -0.23239437  0.23239437  0.00000000 1
    -0.22535211  0.22535211  0.00000000 1
    -0.21830986  0.21830986  0.00000000 1
    -0.21126761  0.21126761  0.00000000 1
    -0.20422535  0.20422535  0.00000000 1
    -0.19718310  0.19718310  0.00000000 1
    -0.19014085  0.19014085  0.00000000 1
    -0.18309859  0.18309859  0.00000000 1
    -0.17605634  0.17605634  0.00000000 1
    -0.16901408  0.16901408  0.00000000 1
    -0.16197183  0.16197183  0.00000000 1
    -0.15492958  0.15492958  0.00000000 1
    -0.14788732  0.14788732  0.00000000 1
    -0.14084507  0.14084507  0.00000000 1
    -0.13380282  0.13380282  0.00000000 1
    -0.12676056  0.12676056  0.00000000 1
    -0.11971831  0.11971831  0.00000000 1
    -0.11267606  0.11267606  0.00000000 1
    -0.10563380  0.10563380  0.00000000 1
    -0.09859155  0.09859155  0.00000000 1
    -0.09154930  0.09154930  0.00000000 1
    -0.08450704  0.08450704  0.00000000 1
    -0.07746479  0.07746479  0.00000000 1
    -0.07042254  0.07042254  0.00000000 1
    -0.06338028  0.06338028  0.00000000 1
    -0.05633803  0.05633803  0.00000000 1
    -0.04929577  0.04929577  0.00000000 1
    -0.04225352  0.04225352  0.00000000 1
    -0.03521127  0.03521127  0.00000000 1
    -0.02816901  0.02816901  0.00000000 1
    -0.02112676  0.02112676  0.00000000 1
    -0.01408451  0.01408451  0.00000000 1
    -0.00704225  0.00704225  0.00000000 1
    0.00000000  0.00000000  0.00000000 1
    -0.00632911  0.00632911  0.00632911 1
    -0.01265823  0.01265823  0.01265823 1
    -0.01898734  0.01898734  0.01898734 1
    -0.02531646  0.02531646  0.02531646 1
    -0.03164557  0.03164557  0.03164557 1
    -0.03797468  0.03797468  0.03797468 1
    -0.04430380  0.04430380  0.04430380 1
    -0.05063291  0.05063291  0.05063291 1
    -0.05696203  0.05696203  0.05696203 1
    -0.06329114  0.06329114  0.06329114 1
    -0.06962025  0.06962025  0.06962025 1
    -0.07594937  0.07594937  0.07594937 1
    -0.08227848  0.08227848  0.08227848 1
    -0.08860759  0.08860759  0.08860759 1
    -0.09493671  0.09493671  0.09493671 1
    -0.10126582  0.10126582  0.10126582 1
    -0.10759494  0.10759494  0.10759494 1
    -0.11392405  0.11392405  0.11392405 1
    -0.12025316  0.12025316  0.12025316 1
    -0.12658228  0.12658228  0.12658228 1
    -0.13291139  0.13291139  0.13291139 1
    -0.13924051  0.13924051  0.13924051 1
    -0.14556962  0.14556962  0.14556962 1
    -0.15189873  0.15189873  0.15189873 1
    -0.15822785  0.15822785  0.15822785 1
    -0.16455696  0.16455696  0.16455696 1
    -0.17088608  0.17088608  0.17088608 1
    -0.17721519  0.17721519  0.17721519 1
    -0.18354430  0.18354430  0.18354430 1
    -0.18987342  0.18987342  0.18987342 1
    -0.19620253  0.19620253  0.19620253 1
    -0.20253165  0.20253165  0.20253165 1
    -0.20886076  0.20886076  0.20886076 1
    -0.21518987  0.21518987  0.21518987 1
    -0.22151899  0.22151899  0.22151899 1
    -0.22784810  0.22784810  0.22784810 1
    -0.23417722  0.23417722  0.23417722 1
    -0.24050633  0.24050633  0.24050633 1
    -0.24683544  0.24683544  0.24683544 1
    -0.25316456  0.25316456  0.25316456 1
    -0.25949367  0.25949367  0.25949367 1
    -0.26582278  0.26582278  0.26582278 1
    -0.27215190  0.27215190  0.27215190 1
    -0.27848101  0.27848101  0.27848101 1
    -0.28481013  0.28481013  0.28481013 1
    -0.29113924  0.29113924  0.29113924 1
    -0.29746835  0.29746835  0.29746835 1
    -0.30379747  0.30379747  0.30379747 1
    -0.31012658  0.31012658  0.31012658 1
    -0.31645570  0.31645570  0.31645570 1
    -0.32278481  0.32278481  0.32278481 1
    -0.32911392  0.32911392  0.32911392 1
    -0.33544304  0.33544304  0.33544304 1
    -0.34177215  0.34177215  0.34177215 1
    -0.34810127  0.34810127  0.34810127 1
    -0.35443038  0.35443038  0.35443038 1
    -0.36075949  0.36075949  0.36075949 1
    -0.36708861  0.36708861  0.36708861 1
    -0.37341772  0.37341772  0.37341772 1
    -0.37974684  0.37974684  0.37974684 1
    -0.38607595  0.38607595  0.38607595 1
    -0.39240506  0.39240506  0.39240506 1
    -0.39873418  0.39873418  0.39873418 1
    -0.40506329  0.40506329  0.40506329 1
    -0.41139241  0.41139241  0.41139241 1
    -0.41772152  0.41772152  0.41772152 1
    -0.42405063  0.42405063  0.42405063 1
    -0.43037975  0.43037975  0.43037975 1
    -0.43670886  0.43670886  0.43670886 1
    -0.44303797  0.44303797  0.44303797 1
    -0.44936709  0.44936709  0.44936709 1
    -0.45569620  0.45569620  0.45569620 1
    -0.46202532  0.46202532  0.46202532 1
    -0.46835443  0.46835443  0.46835443 1
    -0.47468354  0.47468354  0.47468354 1
    -0.48101266  0.48101266  0.48101266 1
    -0.48734177  0.48734177  0.48734177 1
    -0.49367089  0.49367089  0.49367089 1
    -0.50000000  0.50000000  0.50000000 1
    -0.49479167  0.50520833  0.50000000 1
    -0.48958333  0.51041667  0.50000000 1
    -0.48437500  0.51562500  0.50000000 1
    -0.47916667  0.52083333  0.50000000 1
    -0.47395833  0.52604167  0.50000000 1
    -0.46875000  0.53125000  0.50000000 1
    -0.46354167  0.53645833  0.50000000 1
    -0.45833333  0.54166667  0.50000000 1
    -0.45312500  0.54687500  0.50000000 1
    -0.44791667  0.55208333  0.50000000 1
    -0.44270833  0.55729167  0.50000000 1
    -0.43750000  0.56250000  0.50000000 1
    -0.43229167  0.56770833  0.50000000 1
    -0.42708333  0.57291667  0.50000000 1
    -0.42187500  0.57812500  0.50000000 1
    -0.41666667  0.58333333  0.50000000 1
    -0.41145833  0.58854167  0.50000000 1
    -0.40625000  0.59375000  0.50000000 1
    -0.40104167  0.59895833  0.50000000 1
    -0.39583333  0.60416667  0.50000000 1
    -0.39062500  0.60937500  0.50000000 1
    -0.38541667  0.61458333  0.50000000 1
    -0.38020833  0.61979167  0.50000000 1
    -0.37500000  0.62500000  0.50000000 1
    -0.36627907  0.62209302  0.50000000 1
    -0.35755814  0.61918605  0.50000000 1
    -0.34883721  0.61627907  0.50000000 1
    -0.34011628  0.61337209  0.50000000 1
    -0.33139535  0.61046512  0.50000000 1
    -0.32267442  0.60755814  0.50000000 1
    -0.31395349  0.60465116  0.50000000 1
    -0.30523256  0.60174419  0.50000000 1
    -0.29651163  0.59883721  0.50000000 1
    -0.28779070  0.59593023  0.50000000 1
    -0.27906977  0.59302326  0.50000000 1
    -0.27034884  0.59011628  0.50000000 1
    -0.26162791  0.58720930  0.50000000 1
    -0.25290698  0.58430233  0.50000000 1
    -0.24418605  0.58139535  0.50000000 1
    -0.23546512  0.57848837  0.50000000 1
    -0.22674419  0.57558140  0.50000000 1
    -0.21802326  0.57267442  0.50000000 1
    -0.20930233  0.56976744  0.50000000 1
    -0.20058140  0.56686047  0.50000000 1
    -0.19186047  0.56395349  0.50000000 1
    -0.18313953  0.56104651  0.50000000 1
    -0.17441860  0.55813953  0.50000000 1
    -0.16569767  0.55523256  0.50000000 1
    -0.15697674  0.55232558  0.50000000 1
    -0.14825581  0.54941860  0.50000000 1
    -0.13953488  0.54651163  0.50000000 1
    -0.13081395  0.54360465  0.50000000 1
    -0.12209302  0.54069767  0.50000000 1
    -0.11337209  0.53779070  0.50000000 1
    -0.10465116  0.53488372  0.50000000 1
    -0.09593023  0.53197674  0.50000000 1
    -0.08720930  0.52906977  0.50000000 1
    -0.07848837  0.52616279  0.50000000 1
    -0.06976744  0.52325581  0.50000000 1
    -0.06104651  0.52034884  0.50000000 1
    -0.05232558  0.51744186  0.50000000 1
    -0.04360465  0.51453488  0.50000000 1
    -0.03488372  0.51162791  0.50000000 1
    -0.02616279  0.50872093  0.50000000 1
    -0.01744186  0.50581395  0.50000000 1
    -0.00872093  0.50290698  0.50000000 1
    0.00000000  0.50000000  0.50000000 1
    0.00000000  0.50000000  0.48571429 1
    0.00000000  0.50000000  0.47142857 1
    0.00000000  0.50000000  0.45714286 1
    0.00000000  0.50000000  0.44285714 1
    0.00000000  0.50000000  0.42857143 1
    0.00000000  0.50000000  0.41428571 1
    0.00000000  0.50000000  0.40000000 1
    0.00000000  0.50000000  0.38571429 1
    0.00000000  0.50000000  0.37142857 1
    0.00000000  0.50000000  0.35714286 1
    0.00000000  0.50000000  0.34285714 1
    0.00000000  0.50000000  0.32857143 1
    0.00000000  0.50000000  0.31428571 1
    0.00000000  0.50000000  0.30000000 1
    0.00000000  0.50000000  0.28571429 1
    0.00000000  0.50000000  0.27142857 1
    0.00000000  0.50000000  0.25714286 1
    0.00000000  0.50000000  0.24285714 1
    0.00000000  0.50000000  0.22857143 1
    0.00000000  0.50000000  0.21428571 1
    0.00000000  0.50000000  0.20000000 1
    0.00000000  0.50000000  0.18571429 1
    0.00000000  0.50000000  0.17142857 1
    0.00000000  0.50000000  0.15714286 1
    0.00000000  0.50000000  0.14285714 1
    0.00000000  0.50000000  0.12857143 1
    0.00000000  0.50000000  0.11428571 1
    0.00000000  0.50000000  0.10000000 1
    0.00000000  0.50000000  0.08571429 1
    0.00000000  0.50000000  0.07142857 1
    0.00000000  0.50000000  0.05714286 1
    0.00000000  0.50000000  0.04285714 1
    0.00000000  0.50000000  0.02857143 1
    0.00000000  0.50000000  0.01428571 1
    0.00000000  0.50000000  0.00000000 1
    0.00000000  0.49180328  0.00000000 1
    0.00000000  0.48360656  0.00000000 1
    0.00000000  0.47540984  0.00000000 1
    0.00000000  0.46721311  0.00000000 1
    0.00000000  0.45901639  0.00000000 1
    0.00000000  0.45081967  0.00000000 1
    0.00000000  0.44262295  0.00000000 1
    0.00000000  0.43442623  0.00000000 1
    0.00000000  0.42622951  0.00000000 1
    0.00000000  0.41803279  0.00000000 1
    0.00000000  0.40983607  0.00000000 1
    0.00000000  0.40163934  0.00000000 1
    0.00000000  0.39344262  0.00000000 1
    0.00000000  0.38524590  0.00000000 1
    0.00000000  0.37704918  0.00000000 1
    0.00000000  0.36885246  0.00000000 1
    0.00000000  0.36065574  0.00000000 1
    0.00000000  0.35245902  0.00000000 1
    0.00000000  0.34426230  0.00000000 1
    0.00000000  0.33606557  0.00000000 1
    0.00000000  0.32786885  0.00000000 1
    0.00000000  0.31967213  0.00000000 1
    0.00000000  0.31147541  0.00000000 1
    0.00000000  0.30327869  0.00000000 1
    0.00000000  0.29508197  0.00000000 1
    0.00000000  0.28688525  0.00000000 1
    0.00000000  0.27868852  0.00000000 1
    0.00000000  0.27049180  0.00000000 1
    0.00000000  0.26229508  0.00000000 1
    0.00000000  0.25409836  0.00000000 1
    0.00000000  0.24590164  0.00000000 1
    0.00000000  0.23770492  0.00000000 1
    0.00000000  0.22950820  0.00000000 1
    0.00000000  0.22131148  0.00000000 1
    0.00000000  0.21311475  0.00000000 1
    0.00000000  0.20491803  0.00000000 1
    0.00000000  0.19672131  0.00000000 1
    0.00000000  0.18852459  0.00000000 1
    0.00000000  0.18032787  0.00000000 1
    0.00000000  0.17213115  0.00000000 1
    0.00000000  0.16393443  0.00000000 1
    0.00000000  0.15573770  0.00000000 1
    0.00000000  0.14754098  0.00000000 1
    0.00000000  0.13934426  0.00000000 1
    0.00000000  0.13114754  0.00000000 1
    0.00000000  0.12295082  0.00000000 1
    0.00000000  0.11475410  0.00000000 1
    0.00000000  0.10655738  0.00000000 1
    0.00000000  0.09836066  0.00000000 1
    0.00000000  0.09016393  0.00000000 1
    0.00000000  0.08196721  0.00000000 1
    0.00000000  0.07377049  0.00000000 1
    0.00000000  0.06557377  0.00000000 1
    0.00000000  0.05737705  0.00000000 1
    0.00000000  0.04918033  0.00000000 1
    0.00000000  0.04098361  0.00000000 1
    0.00000000  0.03278689  0.00000000 1
    0.00000000  0.02459016  0.00000000 1
    0.00000000  0.01639344  0.00000000 1
    0.00000000  0.00819672  0.00000000 1
    0.00000000  0.00000000  0.00000000 1
    0.00000000  0.00000000  0.01428571 1
    0.00000000  0.00000000  0.02857143 1
    0.00000000  0.00000000  0.04285714 1
    0.00000000  0.00000000  0.05714286 1
    0.00000000  0.00000000  0.07142857 1
    0.00000000  0.00000000  0.08571429 1
    0.00000000  0.00000000  0.10000000 1
    0.00000000  0.00000000  0.11428571 1
    0.00000000  0.00000000  0.12857143 1
    0.00000000  0.00000000  0.14285714 1
    0.00000000  0.00000000  0.15714286 1
    0.00000000  0.00000000  0.17142857 1
    0.00000000  0.00000000  0.18571429 1
    0.00000000  0.00000000  0.20000000 1
    0.00000000  0.00000000  0.21428571 1
    0.00000000  0.00000000  0.22857143 1
    0.00000000  0.00000000  0.24285714 1
    0.00000000  0.00000000  0.25714286 1
    0.00000000  0.00000000  0.27142857 1
    0.00000000  0.00000000  0.28571429 1
    0.00000000  0.00000000  0.30000000 1
    0.00000000  0.00000000  0.31428571 1
    0.00000000  0.00000000  0.32857143 1
    0.00000000  0.00000000  0.34285714 1
    0.00000000  0.00000000  0.35714286 1
    0.00000000  0.00000000  0.37142857 1
    0.00000000  0.00000000  0.38571429 1
    0.00000000  0.00000000  0.40000000 1
    0.00000000  0.00000000  0.41428571 1
    0.00000000  0.00000000  0.42857143 1
    0.00000000  0.00000000  0.44285714 1
    0.00000000  0.00000000  0.45714286 1
    0.00000000  0.00000000  0.47142857 1
    0.00000000  0.00000000  0.48571429 1
    0.00000000  0.00000000  0.50000000 1
