&CONTROL
  calculation = 'bands',
  prefix = 'hea',
  pseudo_dir = '../../pseudo/',
  verbosity = 'low',
/
&SYSTEM
  degauss = 0.15,
  ecutrho = 340.0,
  ecutwfc = 85.0,
  ibrav = 0,
  nbnd = 200,
  nosym = .FALSE.,
  occupations = 'smearing',
  smearing = 'gauss',
  nat = 20,
  ntyp = 5,
/
&ELECTRONS
  conv_thr = 1d-10,
  electron_maxstep = 80,
  mixing_beta = 0.7,
  mixing_mode = 'local-TF',
/
&IONS
/
&CELL
/
ATOMIC_SPECIES
  Hf  178.4900 Hf.upf
  Nb  92.9064 Nb.upf
  Ta  180.9479 Ta.upf
  Ti  47.8670 Ti.upf
  Zr  91.2240 Zr.upf
ATOMIC_POSITIONS crystal
  Hf 0.602869198900 0.602869198800 0.896809019400
  Hf 0.395412300900 0.395412301000 0.844946417300
  Zr 0.599969524600 0.599969524300 0.151036009400
  Zr 0.804857879600 0.804857879700 0.457925767100
  Ta 0.800645158500 0.800645158400 0.195374362100
  Ta 0.397378403100 0.397378403200 0.105233418500
  Ta 0.597917177400 0.597917177300 0.402583944900
  Ta 0.205128762500 0.205128762400 0.303514378700
  Ta 0.001338251300 0.001338251300 0.250481645100
  Ta -0.005658491900 -0.005658491900 0.749269580700
  Ta 0.804746456700 0.804746456900 0.949853793100
  Ti 0.404727706800 0.404727707000 0.596852230300
  Ti 0.200627535300 0.200627535200 0.051609660700
  Nb 0.793494820600 0.793494820600 0.695432751200
  Nb 0.002681480100 0.002681480100 0.001694565100
  Nb 0.000995895200 0.000995895300 0.501058188000
  Nb 0.195332497200 0.195332497200 0.801114037100
  Nb 0.398634641100 0.398634641000 0.347689836300
  Nb 0.199717223900 0.199717223900 0.550112296200
  Nb 0.599183578300 0.599183578500 0.647408098800
CELL_PARAMETERS angstrom
      6.9227947100      0.0146144720     -3.6932803310
      5.4483789160      4.2708860150     -3.6932803310
     -0.0256699470     -0.0088923320     11.0318291990
K_POINTS crystal
450
    0.00000000  0.00000000  0.00000000 1
    0.00000000  0.00684932  0.00000000 1
    0.00000000  0.01369863  0.00000000 1
    0.00000000  0.02054795  0.00000000 1
    0.00000000  0.02739726  0.00000000 1
    0.00000000  0.03424658  0.00000000 1
    0.00000000  0.04109589  0.00000000 1
    0.00000000  0.04794521  0.00000000 1
    0.00000000  0.05479452  0.00000000 1
    0.00000000  0.06164384  0.00000000 1
    0.00000000  0.06849315  0.00000000 1
    0.00000000  0.07534247  0.00000000 1
    0.00000000  0.08219178  0.00000000 1
    0.00000000  0.08904110  0.00000000 1
    0.00000000  0.09589041  0.00000000 1
    0.00000000  0.10273973  0.00000000 1
    0.00000000  0.10958904  0.00000000 1
    0.00000000  0.11643836  0.00000000 1
    0.00000000  0.12328767  0.00000000 1
    0.00000000  0.13013699  0.00000000 1
    0.00000000  0.13698630  0.00000000 1
    0.00000000  0.14383562  0.00000000 1
    0.00000000  0.15068493  0.00000000 1
    0.00000000  0.15753425  0.00000000 1
    0.00000000  0.16438356  0.00000000 1
    0.00000000  0.17123288  0.00000000 1
    0.00000000  0.17808219  0.00000000 1
    0.00000000  0.18493151  0.00000000 1
    0.00000000  0.19178082  0.00000000 1
    0.00000000  0.19863014  0.00000000 1
    0.00000000  0.20547945  0.00000000 1
    0.00000000  0.21232877  0.00000000 1
    0.00000000  0.21917808  0.00000000 1
    0.00000000  0.22602740  0.00000000 1
    0.00000000  0.23287671  0.00000000 1
    0.00000000  0.23972603  0.00000000 1
    0.00000000  0.24657534  0.00000000 1
    0.00000000  0.25342466  0.00000000 1
    0.00000000  0.26027397  0.00000000 1
    0.00000000  0.26712329  0.00000000 1
    0.00000000  0.27397260  0.00000000 1
    0.00000000  0.28082192  0.00000000 1
    0.00000000  0.28767123  0.00000000 1
    0.00000000  0.29452055  0.00000000 1
    0.00000000  0.30136986  0.00000000 1
    0.00000000  0.30821918  0.00000000 1
    0.00000000  0.31506849  0.00000000 1
    0.00000000  0.32191781  0.00000000 1
    0.00000000  0.32876712  0.00000000 1
    0.00000000  0.33561644  0.00000000 1
    0.00000000  0.34246575  0.00000000 1
    0.00000000  0.34931507  0.00000000 1
    0.00000000  0.35616438  0.00000000 1
    0.00000000  0.36301370  0.00000000 1
    0.00000000  0.36986301  0.00000000 1
    0.00000000  0.37671233  0.00000000 1
    0.00000000  0.38356164  0.00000000 1
    0.00000000  0.39041096  0.00000000 1
    0.00000000  0.39726027  0.00000000 1
    0.00000000  0.40410959  0.00000000 1
    0.00000000  0.41095890  0.00000000 1
    0.00000000  0.41780822  0.00000000 1
    0.00000000  0.42465753  0.00000000 1
    0.00000000  0.43150685  0.00000000 1
    0.00000000  0.43835616  0.00000000 1
    0.00000000  0.44520548  0.00000000 1
    0.00000000  0.45205479  0.00000000 1
    0.00000000  0.45890411  0.00000000 1
    0.00000000  0.46575342  0.00000000 1
    0.00000000  0.47260274  0.00000000 1
    0.00000000  0.47945205  0.00000000 1
    0.00000000  0.48630137  0.00000000 1
    0.00000000  0.49315068  0.00000000 1
    0.00000000  0.50000000  0.00000000 1
    -0.00405797  0.50318841  0.00000000 1
    -0.00811594  0.50637681  0.00000000 1
    -0.01217391  0.50956522  0.00000000 1
    -0.01623188  0.51275362  0.00000000 1
    -0.02028986  0.51594203  0.00000000 1
    -0.02434783  0.51913043  0.00000000 1
    -0.02840580  0.52231884  0.00000000 1
    -0.03246377  0.52550725  0.00000000 1
    -0.03652174  0.52869565  0.00000000 1
    -0.04057971  0.53188406  0.00000000 1
    -0.04463768  0.53507246  0.00000000 1
    -0.04869565  0.53826087  0.00000000 1
    -0.05275362  0.54144928  0.00000000 1
    -0.05681159  0.54463768  0.00000000 1
    -0.06086957  0.54782609  0.00000000 1
    -0.06492754  0.55101449  0.00000000 1
    -0.06898551  0.55420290  0.00000000 1
    -0.07304348  0.55739130  0.00000000 1
    -0.07710145  0.56057971  0.00000000 1
    -0.08115942  0.56376812  0.00000000 1
    -0.08521739  0.56695652  0.00000000 1
    -0.08927536  0.57014493  0.00000000 1
    -0.09333333  0.57333333  0.00000000 1
    -0.09739130  0.57652174  0.00000000 1
    -0.10144928  0.57971014  0.00000000 1
    -0.10550725  0.58289855  0.00000000 1
    -0.10956522  0.58608696  0.00000000 1
    -0.11362319  0.58927536  0.00000000 1
    -0.11768116  0.59246377  0.00000000 1
    -0.12173913  0.59565217  0.00000000 1
    -0.12579710  0.59884058  0.00000000 1
    -0.12985507  0.60202899  0.00000000 1
    -0.13391304  0.60521739  0.00000000 1
    -0.13797101  0.60840580  0.00000000 1
    -0.14202899  0.61159420  0.00000000 1
    -0.14608696  0.61478261  0.00000000 1
    -0.15014493  0.61797101  0.00000000 1
    -0.15420290  0.62115942  0.00000000 1
    -0.15826087  0.62434783  0.00000000 1
    -0.16231884  0.62753623  0.00000000 1
    -0.16637681  0.63072464  0.00000000 1
    -0.17043478  0.63391304  0.00000000 1
    -0.17449275  0.63710145  0.00000000 1
    -0.17855072  0.64028986  0.00000000 1
    -0.18260870  0.64347826  0.00000000 1
    -0.18666667  0.64666667  0.00000000 1
    -0.19072464  0.64985507  0.00000000 1
    -0.19478261  0.65304348  0.00000000 1
    -0.19884058  0.65623188  0.00000000 1
    -0.20289855  0.65942029  0.00000000 1
    -0.20695652  0.66260870  0.00000000 1
    -0.21101449  0.66579710  0.00000000 1
    -0.21507246  0.66898551  0.00000000 1
    -0.21913043  0.67217391  0.00000000 1
    -0.22318841  0.67536232  0.00000000 1
    -0.22724638  0.67855072  0.00000000 1
    -0.23130435  0.68173913  0.00000000 1
    -0.23536232  0.68492754  0.00000000 1
    -0.23942029  0.68811594  0.00000000 1
    -0.24347826  0.69130435  0.00000000 1
    -0.24753623  0.69449275  0.00000000 1
    -0.25159420  0.69768116  0.00000000 1
    -0.25565217  0.70086957  0.00000000 1
    -0.25971014  0.70405797  0.00000000 1
    -0.26376812  0.70724638  0.00000000 1
    -0.26782609  0.71043478  0.00000000 1
    -0.27188406  0.71362319  0.00000000 1
    -0.27594203  0.71681159  0.00000000 1
    -0.28000000  0.72000000  0.00000000 1
    -0.29100000  0.70900000  0.00000000 1
    -0.30200000  0.69800000  0.00000000 1
    -0.31300000  0.68700000  0.00000000 1
    -0.32400000  0.67600000  0.00000000 1
    -0.33500000  0.66500000  0.00000000 1
    -0.34600000  0.65400000  0.00000000 1
    -0.35700000  0.64300000  0.00000000 1
    -0.36800000  0.63200000  0.00000000 1
    -0.37900000  0.62100000  0.00000000 1
    -0.39000000  0.61000000  0.00000000 1
    -0.40100000  0.59900000  0.00000000 1
    -0.41200000  0.58800000  0.00000000 1
    -0.42300000  0.57700000  0.00000000 1
    -0.43400000  0.56600000  0.00000000 1
    -0.44500000  0.55500000  0.00000000 1
    -0.45600000  0.54400000  0.00000000 1
    -0.46700000  0.53300000  0.00000000 1
    -0.47800000  0.52200000  0.00000000 1
    -0.48900000  0.51100000  0.00000000 1
    -0.50000000  0.50000000  0.00000000 1
    -0.48936170  0.48936170  0.00000000 1
    -0.47872340  0.47872340  0.00000000 1
    -0.46808511  0.46808511  0.00000000 1
    -0.45744681  0.45744681  0.00000000 1
    -0.44680851  0.44680851  0.00000000 1
    -0.43617021  0.43617021  0.00000000 1
    -0.42553191  0.42553191  0.00000000 1
    -0.41489362  0.41489362  0.00000000 1
    -0.40425532  0.40425532  0.00000000 1
    -0.39361702  0.39361702  0.00000000 1
    -0.38297872  0.38297872  0.00000000 1
    -0.37234043  0.37234043  0.00000000 1
    -0.36170213  0.36170213  0.00000000 1
    -0.35106383  0.35106383  0.00000000 1
    -0.34042553  0.34042553  0.00000000 1
    -0.32978723  0.32978723  0.00000000 1
    -0.31914894  0.31914894  0.00000000 1
    -0.30851064  0.30851064  0.00000000 1
    -0.29787234  0.29787234  0.00000000 1
    -0.28723404  0.28723404  0.00000000 1
    -0.27659574  0.27659574  0.00000000 1
    -0.26595745  0.26595745  0.00000000 1
    -0.25531915  0.25531915  0.00000000 1
    -0.24468085  0.24468085  0.00000000 1
    -0.23404255  0.23404255  0.00000000 1
    -0.22340426  0.22340426  0.00000000 1
    -0.21276596  0.21276596  0.00000000 1
    -0.20212766  0.20212766  0.00000000 1
    -0.19148936  0.19148936  0.00000000 1
    -0.18085106  0.18085106  0.00000000 1
    -0.17021277  0.17021277  0.00000000 1
    -0.15957447  0.15957447  0.00000000 1
    -0.14893617  0.14893617  0.00000000 1
    -0.13829787  0.13829787  0.00000000 1
    -0.12765957  0.12765957  0.00000000 1
    -0.11702128  0.11702128  0.00000000 1
    -0.10638298  0.10638298  0.00000000 1
    -0.09574468  0.09574468  0.00000000 1
    -0.08510638  0.08510638  0.00000000 1
    -0.07446809  0.07446809  0.00000000 1
    -0.06382979  0.06382979  0.00000000 1
    -0.05319149  0.05319149  0.00000000 1
    -0.04255319  0.04255319  0.00000000 1
    -0.03191489  0.03191489  0.00000000 1
    -0.02127660  0.02127660  0.00000000 1
    -0.01063830  0.01063830  0.00000000 1
    0.00000000  0.00000000  0.00000000 1
    -0.01190476  0.01190476  0.01190476 1
    -0.02380952  0.02380952  0.02380952 1
    -0.03571429  0.03571429  0.03571429 1
    -0.04761905  0.04761905  0.04761905 1
    -0.05952381  0.05952381  0.05952381 1
    -0.07142857  0.07142857  0.07142857 1
    -0.08333333  0.08333333  0.08333333 1
    -0.09523810  0.09523810  0.09523810 1
    -0.10714286  0.10714286  0.10714286 1
    -0.11904762  0.11904762  0.11904762 1
    -0.13095238  0.13095238  0.13095238 1
    -0.14285714  0.14285714  0.14285714 1
    -0.15476190  0.15476190  0.15476190 1
    -0.16666667  0.16666667  0.16666667 1
    -0.17857143  0.17857143  0.17857143 1
    -0.19047619  0.19047619  0.19047619 1
    -0.20238095  0.20238095  0.20238095 1
    -0.21428571  0.21428571  0.21428571 1
    -0.22619048  0.22619048  0.22619048 1
    -0.23809524  0.23809524  0.23809524 1
    -0.25000000  0.25000000  0.25000000 1
    -0.26190476  0.26190476  0.26190476 1
    -0.27380952  0.27380952  0.27380952 1
    -0.28571429  0.28571429  0.28571429 1
    -0.29761905  0.29761905  0.29761905 1
    -0.30952381  0.30952381  0.30952381 1
    -0.32142857  0.32142857  0.32142857 1
    -0.33333333  0.33333333  0.33333333 1
    -0.34523810  0.34523810  0.34523810 1
    -0.35714286  0.35714286  0.35714286 1
    -0.36904762  0.36904762  0.36904762 1
    -0.38095238  0.38095238  0.38095238 1
    -0.39285714  0.39285714  0.39285714 1
    -0.40476190  0.40476190  0.40476190 1
    -0.41666667  0.41666667  0.41666667 1
    -0.42857143  0.42857143  0.42857143 1
    -0.44047619  0.44047619  0.44047619 1
    -0.45238095  0.45238095  0.45238095 1
    -0.46428571  0.46428571  0.46428571 1
    -0.47619048  0.47619048  0.47619048 1
    -0.48809524  0.48809524  0.48809524 1
    -0.50000000  0.50000000  0.50000000 1
    -0.48909091  0.51090909  0.50000000 1
    -0.47818182  0.52181818  0.50000000 1
    -0.46727273  0.53272727  0.50000000 1
    -0.45636364  0.54363636  0.50000000 1
    -0.44545455  0.55454545  0.50000000 1
    -0.43454545  0.56545455  0.50000000 1
    -0.42363636  0.57636364  0.50000000 1
    -0.41272727  0.58727273  0.50000000 1
    -0.40181818  0.59818182  0.50000000 1
    -0.39090909  0.60909091  0.50000000 1
    -0.38000000  0.62000000  0.50000000 1
    -0.36909091  0.63090909  0.50000000 1
    -0.35818182  0.64181818  0.50000000 1
    -0.34727273  0.65272727  0.50000000 1
    -0.33636364  0.66363636  0.50000000 1
    -0.32545455  0.67454545  0.50000000 1
    -0.31454545  0.68545455  0.50000000 1
    -0.30363636  0.69636364  0.50000000 1
    -0.29272727  0.70727273  0.50000000 1
    -0.28181818  0.71818182  0.50000000 1
    -0.27090909  0.72909091  0.50000000 1
    -0.26000000  0.74000000  0.50000000 1
    -0.25623188  0.73652174  0.50000000 1
    -0.25246377  0.73304348  0.50000000 1
    -0.24869565  0.72956522  0.50000000 1
    -0.24492754  0.72608696  0.50000000 1
    -0.24115942  0.72260870  0.50000000 1
    -0.23739130  0.71913043  0.50000000 1
    -0.23362319  0.71565217  0.50000000 1
    -0.22985507  0.71217391  0.50000000 1
    -0.22608696  0.70869565  0.50000000 1
    -0.22231884  0.70521739  0.50000000 1
    -0.21855072  0.70173913  0.50000000 1
    -0.21478261  0.69826087  0.50000000 1
    -0.21101449  0.69478261  0.50000000 1
    -0.20724638  0.69130435  0.50000000 1
    -0.20347826  0.68782609  0.50000000 1
    -0.19971014  0.68434783  0.50000000 1
    -0.19594203  0.68086957  0.50000000 1
    -0.19217391  0.67739130  0.50000000 1
    -0.18840580  0.67391304  0.50000000 1
    -0.18463768  0.67043478  0.50000000 1
    -0.18086957  0.66695652  0.50000000 1
    -0.17710145  0.66347826  0.50000000 1
    -0.17333333  0.66000000  0.50000000 1
    -0.16956522  0.65652174  0.50000000 1
    -0.16579710  0.65304348  0.50000000 1
    -0.16202899  0.64956522  0.50000000 1
    -0.15826087  0.64608696  0.50000000 1
    -0.15449275  0.64260870  0.50000000 1
    -0.15072464  0.63913043  0.50000000 1
    -0.14695652  0.63565217  0.50000000 1
    -0.14318841  0.63217391  0.50000000 1
    -0.13942029  0.62869565  0.50000000 1
    -0.13565217  0.62521739  0.50000000 1
    -0.13188406  0.62173913  0.50000000 1
    -0.12811594  0.61826087  0.50000000 1
    -0.12434783  0.61478261  0.50000000 1
    -0.12057971  0.61130435  0.50000000 1
    -0.11681159  0.60782609  0.50000000 1
    -0.11304348  0.60434783  0.50000000 1
    -0.10927536  0.60086957  0.50000000 1
    -0.10550725  0.59739130  0.50000000 1
    -0.10173913  0.59391304  0.50000000 1
    -0.09797101  0.59043478  0.50000000 1
    -0.09420290  0.58695652  0.50000000 1
    -0.09043478  0.58347826  0.50000000 1
    -0.08666667  0.58000000  0.50000000 1
    -0.08289855  0.57652174  0.50000000 1
    -0.07913043  0.57304348  0.50000000 1
    -0.07536232  0.56956522  0.50000000 1
    -0.07159420  0.56608696  0.50000000 1
    -0.06782609  0.56260870  0.50000000 1
    -0.06405797  0.55913043  0.50000000 1
    -0.06028986  0.55565217  0.50000000 1
    -0.05652174  0.55217391  0.50000000 1
    -0.05275362  0.54869565  0.50000000 1
    -0.04898551  0.54521739  0.50000000 1
    -0.04521739  0.54173913  0.50000000 1
    -0.04144928  0.53826087  0.50000000 1
    -0.03768116  0.53478261  0.50000000 1
    -0.03391304  0.53130435  0.50000000 1
    -0.03014493  0.52782609  0.50000000 1
    -0.02637681  0.52434783  0.50000000 1
    -0.02260870  0.52086957  0.50000000 1
    -0.01884058  0.51739130  0.50000000 1
    -0.01507246  0.51391304  0.50000000 1
    -0.01130435  0.51043478  0.50000000 1
    -0.00753623  0.50695652  0.50000000 1
    -0.00376812  0.50347826  0.50000000 1
    0.00000000  0.50000000  0.50000000 1
    0.00000000  0.49333333  0.49333333 1
    0.00000000  0.48666667  0.48666667 1
    0.00000000  0.48000000  0.48000000 1
    0.00000000  0.47333333  0.47333333 1
    0.00000000  0.46666667  0.46666667 1
    0.00000000  0.46000000  0.46000000 1
    0.00000000  0.45333333  0.45333333 1
    0.00000000  0.44666667  0.44666667 1
    0.00000000  0.44000000  0.44000000 1
    0.00000000  0.43333333  0.43333333 1
    0.00000000  0.42666667  0.42666667 1
    0.00000000  0.42000000  0.42000000 1
    0.00000000  0.41333333  0.41333333 1
    0.00000000  0.40666667  0.40666667 1
    0.00000000  0.40000000  0.40000000 1
    0.00000000  0.39333333  0.39333333 1
    0.00000000  0.38666667  0.38666667 1
    0.00000000  0.38000000  0.38000000 1
    0.00000000  0.37333333  0.37333333 1
    0.00000000  0.36666667  0.36666667 1
    0.00000000  0.36000000  0.36000000 1
    0.00000000  0.35333333  0.35333333 1
    0.00000000  0.34666667  0.34666667 1
    0.00000000  0.34000000  0.34000000 1
    0.00000000  0.33333333  0.33333333 1
    0.00000000  0.32666667  0.32666667 1
    0.00000000  0.32000000  0.32000000 1
    0.00000000  0.31333333  0.31333333 1
    0.00000000  0.30666667  0.30666667 1
    0.00000000  0.30000000  0.30000000 1
    0.00000000  0.29333333  0.29333333 1
    0.00000000  0.28666667  0.28666667 1
    0.00000000  0.28000000  0.28000000 1
    0.00000000  0.27333333  0.27333333 1
    0.00000000  0.26666667  0.26666667 1
    0.00000000  0.26000000  0.26000000 1
    0.00000000  0.25333333  0.25333333 1
    0.00000000  0.24666667  0.24666667 1
    0.00000000  0.24000000  0.24000000 1
    0.00000000  0.23333333  0.23333333 1
    0.00000000  0.22666667  0.22666667 1
    0.00000000  0.22000000  0.22000000 1
    0.00000000  0.21333333  0.21333333 1
    0.00000000  0.20666667  0.20666667 1
    0.00000000  0.20000000  0.20000000 1
    0.00000000  0.19333333  0.19333333 1
    0.00000000  0.18666667  0.18666667 1
    0.00000000  0.18000000  0.18000000 1
    0.00000000  0.17333333  0.17333333 1
    0.00000000  0.16666667  0.16666667 1
    0.00000000  0.16000000  0.16000000 1
    0.00000000  0.15333333  0.15333333 1
    0.00000000  0.14666667  0.14666667 1
    0.00000000  0.14000000  0.14000000 1
    0.00000000  0.13333333  0.13333333 1
    0.00000000  0.12666667  0.12666667 1
    0.00000000  0.12000000  0.12000000 1
    0.00000000  0.11333333  0.11333333 1
    0.00000000  0.10666667  0.10666667 1
    0.00000000  0.10000000  0.10000000 1
    0.00000000  0.09333333  0.09333333 1
    0.00000000  0.08666667  0.08666667 1
    0.00000000  0.08000000  0.08000000 1
    0.00000000  0.07333333  0.07333333 1
    0.00000000  0.06666667  0.06666667 1
    0.00000000  0.06000000  0.06000000 1
    0.00000000  0.05333333  0.05333333 1
    0.00000000  0.04666667  0.04666667 1
    0.00000000  0.04000000  0.04000000 1
    0.00000000  0.03333333  0.03333333 1
    0.00000000  0.02666667  0.02666667 1
    0.00000000  0.02000000  0.02000000 1
    0.00000000  0.01333333  0.01333333 1
    0.00000000  0.00666667  0.00666667 1
    0.00000000  0.00000000  0.00000000 1
    0.00000000  0.00000000  0.01562500 1
    0.00000000  0.00000000  0.03125000 1
    0.00000000  0.00000000  0.04687500 1
    0.00000000  0.00000000  0.06250000 1
    0.00000000  0.00000000  0.07812500 1
    0.00000000  0.00000000  0.09375000 1
    0.00000000  0.00000000  0.10937500 1
    0.00000000  0.00000000  0.12500000 1
    0.00000000  0.00000000  0.14062500 1
    0.00000000  0.00000000  0.15625000 1
    0.00000000  0.00000000  0.17187500 1
    0.00000000  0.00000000  0.18750000 1
    0.00000000  0.00000000  0.20312500 1
    0.00000000  0.00000000  0.21875000 1
    0.00000000  0.00000000  0.23437500 1
    0.00000000  0.00000000  0.25000000 1
    0.00000000  0.00000000  0.26562500 1
    0.00000000  0.00000000  0.28125000 1
    0.00000000  0.00000000  0.29687500 1
    0.00000000  0.00000000  0.31250000 1
    0.00000000  0.00000000  0.32812500 1
    0.00000000  0.00000000  0.34375000 1
    0.00000000  0.00000000  0.35937500 1
    0.00000000  0.00000000  0.37500000 1
    0.00000000  0.00000000  0.39062500 1
    0.00000000  0.00000000  0.40625000 1
    0.00000000  0.00000000  0.42187500 1
    0.00000000  0.00000000  0.43750000 1
    0.00000000  0.00000000  0.45312500 1
    0.00000000  0.00000000  0.46875000 1
    0.00000000  0.00000000  0.48437500 1
    0.00000000  0.00000000  0.50000000 1
