&CONTROL
  calculation = 'bands',
  prefix = 'nb',
  pseudo_dir = '../../pseudo/',
  verbosity = 'low',
/
&SYSTEM
  degauss = 0.015,
  ecutrho = 340,
  ecutwfc = 85.0,
  ibrav = 0,
  nbnd = 14,
  nosym = .FALSE.,
  occupations = 'smearing',
  smearing = 'gauss',
  nat = 1,
  ntyp = 1,
/
&ELECTRONS
  conv_thr = 1d-10,
  diagonalization = 'davidson',
  electron_maxstep = 40,
  mixing_beta = 0.7,
/
&IONS
/
&CELL
/
ATOMIC_SPECIES
  Nb  92.9064 Nb.upf
ATOMIC_POSITIONS crystal
  Nb 0.000000000000 0.000000000000 0.000000000000
CELL_PARAMETERS angstrom
      1.6562355880      1.6562355880      1.6562355880
      1.6562355880     -1.6562355880     -1.6562355880
     -1.6562355880      1.6562355880     -1.6562355880
K_POINTS crystal
790
    0.00000000  0.00000000  0.00000000 1
    0.00261780  -0.00261780  0.00261780 1
    0.00523560  -0.00523560  0.00523560 1
    0.00785340  -0.00785340  0.00785340 1
    0.01047120  -0.01047120  0.01047120 1
    0.01308901  -0.01308901  0.01308901 1
    0.01570681  -0.01570681  0.01570681 1
    0.01832461  -0.01832461  0.01832461 1
    0.02094241  -0.02094241  0.02094241 1
    0.02356021  -0.02356021  0.02356021 1
    0.02617801  -0.02617801  0.02617801 1
    0.02879581  -0.02879581  0.02879581 1
    0.03141361  -0.03141361  0.03141361 1
    0.03403141  -0.03403141  0.03403141 1
    0.03664921  -0.03664921  0.03664921 1
    0.03926702  -0.03926702  0.03926702 1
    0.04188482  -0.04188482  0.04188482 1
    0.04450262  -0.04450262  0.04450262 1
    0.04712042  -0.04712042  0.04712042 1
    0.04973822  -0.04973822  0.04973822 1
    0.05235602  -0.05235602  0.05235602 1
    0.05497382  -0.05497382  0.05497382 1
    0.05759162  -0.05759162  0.05759162 1
    0.06020942  -0.06020942  0.06020942 1
    0.06282723  -0.06282723  0.06282723 1
    0.06544503  -0.06544503  0.06544503 1
    0.06806283  -0.06806283  0.06806283 1
    0.07068063  -0.07068063  0.07068063 1
    0.07329843  -0.07329843  0.07329843 1
    0.07591623  -0.07591623  0.07591623 1
    0.07853403  -0.07853403  0.07853403 1
    0.08115183  -0.08115183  0.08115183 1
    0.08376963  -0.08376963  0.08376963 1
    0.08638743  -0.08638743  0.08638743 1
    0.08900524  -0.08900524  0.08900524 1
    0.09162304  -0.09162304  0.09162304 1
    0.09424084  -0.09424084  0.09424084 1
    0.09685864  -0.09685864  0.09685864 1
    0.09947644  -0.09947644  0.09947644 1
    0.10209424  -0.10209424  0.10209424 1
    0.10471204  -0.10471204  0.10471204 1
    0.10732984  -0.10732984  0.10732984 1
    0.10994764  -0.10994764  0.10994764 1
    0.11256545  -0.11256545  0.11256545 1
    0.11518325  -0.11518325  0.11518325 1
    0.11780105  -0.11780105  0.11780105 1
    0.12041885  -0.12041885  0.12041885 1
    0.12303665  -0.12303665  0.12303665 1
    0.12565445  -0.12565445  0.12565445 1
    0.12827225  -0.12827225  0.12827225 1
    0.13089005  -0.13089005  0.13089005 1
    0.13350785  -0.13350785  0.13350785 1
    0.13612565  -0.13612565  0.13612565 1
    0.13874346  -0.13874346  0.13874346 1
    0.14136126  -0.14136126  0.14136126 1
    0.14397906  -0.14397906  0.14397906 1
    0.14659686  -0.14659686  0.14659686 1
    0.14921466  -0.14921466  0.14921466 1
    0.15183246  -0.15183246  0.15183246 1
    0.15445026  -0.15445026  0.15445026 1
    0.15706806  -0.15706806  0.15706806 1
    0.15968586  -0.15968586  0.15968586 1
    0.16230366  -0.16230366  0.16230366 1
    0.16492147  -0.16492147  0.16492147 1
    0.16753927  -0.16753927  0.16753927 1
    0.17015707  -0.17015707  0.17015707 1
    0.17277487  -0.17277487  0.17277487 1
    0.17539267  -0.17539267  0.17539267 1
    0.17801047  -0.17801047  0.17801047 1
    0.18062827  -0.18062827  0.18062827 1
    0.18324607  -0.18324607  0.18324607 1
    0.18586387  -0.18586387  0.18586387 1
    0.18848168  -0.18848168  0.18848168 1
    0.19109948  -0.19109948  0.19109948 1
    0.19371728  -0.19371728  0.19371728 1
    0.19633508  -0.19633508  0.19633508 1
    0.19895288  -0.19895288  0.19895288 1
    0.20157068  -0.20157068  0.20157068 1
    0.20418848  -0.20418848  0.20418848 1
    0.20680628  -0.20680628  0.20680628 1
    0.20942408  -0.20942408  0.20942408 1
    0.21204188  -0.21204188  0.21204188 1
    0.21465969  -0.21465969  0.21465969 1
    0.21727749  -0.21727749  0.21727749 1
    0.21989529  -0.21989529  0.21989529 1
    0.22251309  -0.22251309  0.22251309 1
    0.22513089  -0.22513089  0.22513089 1
    0.22774869  -0.22774869  0.22774869 1
    0.23036649  -0.23036649  0.23036649 1
    0.23298429  -0.23298429  0.23298429 1
    0.23560209  -0.23560209  0.23560209 1
    0.23821990  -0.23821990  0.23821990 1
    0.24083770  -0.24083770  0.24083770 1
    0.24345550  -0.24345550  0.24345550 1
    0.24607330  -0.24607330  0.24607330 1
    0.24869110  -0.24869110  0.24869110 1
    0.25130890  -0.25130890  0.25130890 1
    0.25392670  -0.25392670  0.25392670 1
    0.25654450  -0.25654450  0.25654450 1
    0.25916230  -0.25916230  0.25916230 1
    0.26178010  -0.26178010  0.26178010 1
    0.26439791  -0.26439791  0.26439791 1
    0.26701571  -0.26701571  0.26701571 1
    0.26963351  -0.26963351  0.26963351 1
    0.27225131  -0.27225131  0.27225131 1
    0.27486911  -0.27486911  0.27486911 1
    0.27748691  -0.27748691  0.27748691 1
    0.28010471  -0.28010471  0.28010471 1
    0.28272251  -0.28272251  0.28272251 1
    0.28534031  -0.28534031  0.28534031 1
    0.28795812  -0.28795812  0.28795812 1
    0.29057592  -0.29057592  0.29057592 1
    0.29319372  -0.29319372  0.29319372 1
    0.29581152  -0.29581152  0.29581152 1
    0.29842932  -0.29842932  0.29842932 1
    0.30104712  -0.30104712  0.30104712 1
    0.30366492  -0.30366492  0.30366492 1
    0.30628272  -0.30628272  0.30628272 1
    0.30890052  -0.30890052  0.30890052 1
    0.31151832  -0.31151832  0.31151832 1
    0.31413613  -0.31413613  0.31413613 1
    0.31675393  -0.31675393  0.31675393 1
    0.31937173  -0.31937173  0.31937173 1
    0.32198953  -0.32198953  0.32198953 1
    0.32460733  -0.32460733  0.32460733 1
    0.32722513  -0.32722513  0.32722513 1
    0.32984293  -0.32984293  0.32984293 1
    0.33246073  -0.33246073  0.33246073 1
    0.33507853  -0.33507853  0.33507853 1
    0.33769634  -0.33769634  0.33769634 1
    0.34031414  -0.34031414  0.34031414 1
    0.34293194  -0.34293194  0.34293194 1
    0.34554974  -0.34554974  0.34554974 1
    0.34816754  -0.34816754  0.34816754 1
    0.35078534  -0.35078534  0.35078534 1
    0.35340314  -0.35340314  0.35340314 1
    0.35602094  -0.35602094  0.35602094 1
    0.35863874  -0.35863874  0.35863874 1
    0.36125654  -0.36125654  0.36125654 1
    0.36387435  -0.36387435  0.36387435 1
    0.36649215  -0.36649215  0.36649215 1
    0.36910995  -0.36910995  0.36910995 1
    0.37172775  -0.37172775  0.37172775 1
    0.37434555  -0.37434555  0.37434555 1
    0.37696335  -0.37696335  0.37696335 1
    0.37958115  -0.37958115  0.37958115 1
    0.38219895  -0.38219895  0.38219895 1
    0.38481675  -0.38481675  0.38481675 1
    0.38743455  -0.38743455  0.38743455 1
    0.39005236  -0.39005236  0.39005236 1
    0.39267016  -0.39267016  0.39267016 1
    0.39528796  -0.39528796  0.39528796 1
    0.39790576  -0.39790576  0.39790576 1
    0.40052356  -0.40052356  0.40052356 1
    0.40314136  -0.40314136  0.40314136 1
    0.40575916  -0.40575916  0.40575916 1
    0.40837696  -0.40837696  0.40837696 1
    0.41099476  -0.41099476  0.41099476 1
    0.41361257  -0.41361257  0.41361257 1
    0.41623037  -0.41623037  0.41623037 1
    0.41884817  -0.41884817  0.41884817 1
    0.42146597  -0.42146597  0.42146597 1
    0.42408377  -0.42408377  0.42408377 1
    0.42670157  -0.42670157  0.42670157 1
    0.42931937  -0.42931937  0.42931937 1
    0.43193717  -0.43193717  0.43193717 1
    0.43455497  -0.43455497  0.43455497 1
    0.43717277  -0.43717277  0.43717277 1
    0.43979058  -0.43979058  0.43979058 1
    0.44240838  -0.44240838  0.44240838 1
    0.44502618  -0.44502618  0.44502618 1
    0.44764398  -0.44764398  0.44764398 1
    0.45026178  -0.45026178  0.45026178 1
    0.45287958  -0.45287958  0.45287958 1
    0.45549738  -0.45549738  0.45549738 1
    0.45811518  -0.45811518  0.45811518 1
    0.46073298  -0.46073298  0.46073298 1
    0.46335079  -0.46335079  0.46335079 1
    0.46596859  -0.46596859  0.46596859 1
    0.46858639  -0.46858639  0.46858639 1
    0.47120419  -0.47120419  0.47120419 1
    0.47382199  -0.47382199  0.47382199 1
    0.47643979  -0.47643979  0.47643979 1
    0.47905759  -0.47905759  0.47905759 1
    0.48167539  -0.48167539  0.48167539 1
    0.48429319  -0.48429319  0.48429319 1
    0.48691099  -0.48691099  0.48691099 1
    0.48952880  -0.48952880  0.48952880 1
    0.49214660  -0.49214660  0.49214660 1
    0.49476440  -0.49476440  0.49476440 1
    0.49738220  -0.49738220  0.49738220 1
    0.50000000  -0.50000000  0.50000000 1
    0.49626866  -0.49626866  0.50000000 1
    0.49253731  -0.49253731  0.50000000 1
    0.48880597  -0.48880597  0.50000000 1
    0.48507463  -0.48507463  0.50000000 1
    0.48134328  -0.48134328  0.50000000 1
    0.47761194  -0.47761194  0.50000000 1
    0.47388060  -0.47388060  0.50000000 1
    0.47014925  -0.47014925  0.50000000 1
    0.46641791  -0.46641791  0.50000000 1
    0.46268657  -0.46268657  0.50000000 1
    0.45895522  -0.45895522  0.50000000 1
    0.45522388  -0.45522388  0.50000000 1
    0.45149254  -0.45149254  0.50000000 1
    0.44776119  -0.44776119  0.50000000 1
    0.44402985  -0.44402985  0.50000000 1
    0.44029851  -0.44029851  0.50000000 1
    0.43656716  -0.43656716  0.50000000 1
    0.43283582  -0.43283582  0.50000000 1
    0.42910448  -0.42910448  0.50000000 1
    0.42537313  -0.42537313  0.50000000 1
    0.42164179  -0.42164179  0.50000000 1
    0.41791045  -0.41791045  0.50000000 1
    0.41417910  -0.41417910  0.50000000 1
    0.41044776  -0.41044776  0.50000000 1
    0.40671642  -0.40671642  0.50000000 1
    0.40298507  -0.40298507  0.50000000 1
    0.39925373  -0.39925373  0.50000000 1
    0.39552239  -0.39552239  0.50000000 1
    0.39179104  -0.39179104  0.50000000 1
    0.38805970  -0.38805970  0.50000000 1
    0.38432836  -0.38432836  0.50000000 1
    0.38059701  -0.38059701  0.50000000 1
    0.37686567  -0.37686567  0.50000000 1
    0.37313433  -0.37313433  0.50000000 1
    0.36940299  -0.36940299  0.50000000 1
    0.36567164  -0.36567164  0.50000000 1
    0.36194030  -0.36194030  0.50000000 1
    0.35820896  -0.35820896  0.50000000 1
    0.35447761  -0.35447761  0.50000000 1
    0.35074627  -0.35074627  0.50000000 1
    0.34701493  -0.34701493  0.50000000 1
    0.34328358  -0.34328358  0.50000000 1
    0.33955224  -0.33955224  0.50000000 1
    0.33582090  -0.33582090  0.50000000 1
    0.33208955  -0.33208955  0.50000000 1
    0.32835821  -0.32835821  0.50000000 1
    0.32462687  -0.32462687  0.50000000 1
    0.32089552  -0.32089552  0.50000000 1
    0.31716418  -0.31716418  0.50000000 1
    0.31343284  -0.31343284  0.50000000 1
    0.30970149  -0.30970149  0.50000000 1
    0.30597015  -0.30597015  0.50000000 1
    0.30223881  -0.30223881  0.50000000 1
    0.29850746  -0.29850746  0.50000000 1
    0.29477612  -0.29477612  0.50000000 1
    0.29104478  -0.29104478  0.50000000 1
    0.28731343  -0.28731343  0.50000000 1
    0.28358209  -0.28358209  0.50000000 1
    0.27985075  -0.27985075  0.50000000 1
    0.27611940  -0.27611940  0.50000000 1
    0.27238806  -0.27238806  0.50000000 1
    0.26865672  -0.26865672  0.50000000 1
    0.26492537  -0.26492537  0.50000000 1
    0.26119403  -0.26119403  0.50000000 1
    0.25746269  -0.25746269  0.50000000 1
    0.25373134  -0.25373134  0.50000000 1
    0.25000000  -0.25000000  0.50000000 1
    0.24626866  -0.24626866  0.50000000 1
    0.24253731  -0.24253731  0.50000000 1
    0.23880597  -0.23880597  0.50000000 1
    0.23507463  -0.23507463  0.50000000 1
    0.23134328  -0.23134328  0.50000000 1
    0.22761194  -0.22761194  0.50000000 1
    0.22388060  -0.22388060  0.50000000 1
    0.22014925  -0.22014925  0.50000000 1
    0.21641791  -0.21641791  0.50000000 1
    0.21268657  -0.21268657  0.50000000 1
    0.20895522  -0.20895522  0.50000000 1
    0.20522388  -0.20522388  0.50000000 1
    0.20149254  -0.20149254  0.50000000 1
    0.19776119  -0.19776119  0.50000000 1
    0.19402985  -0.19402985  0.50000000 1
    0.19029851  -0.19029851  0.50000000 1
    0.18656716  -0.18656716  0.50000000 1
    0.18283582  -0.18283582  0.50000000 1
    0.17910448  -0.17910448  0.50000000 1
    0.17537313  -0.17537313  0.50000000 1
    0.17164179  -0.17164179  0.50000000 1
    0.16791045  -0.16791045  0.50000000 1
    0.16417910  -0.16417910  0.50000000 1
    0.16044776  -0.16044776  0.50000000 1
    0.15671642  -0.15671642  0.50000000 1
    0.15298507  -0.15298507  0.50000000 1
    0.14925373  -0.14925373  0.50000000 1
    0.14552239  -0.14552239  0.50000000 1
    0.14179104  -0.14179104  0.50000000 1
    0.13805970  -0.13805970  0.50000000 1
    0.13432836  -0.13432836  0.50000000 1
    0.13059701  -0.13059701  0.50000000 1
    0.12686567  -0.12686567  0.50000000 1
    0.12313433  -0.12313433  0.50000000 1
    0.11940299  -0.11940299  0.50000000 1
    0.11567164  -0.11567164  0.50000000 1
    0.11194030  -0.11194030  0.50000000 1
    0.10820896  -0.10820896  0.50000000 1
    0.10447761  -0.10447761  0.50000000 1
    0.10074627  -0.10074627  0.50000000 1
    0.09701493  -0.09701493  0.50000000 1
    0.09328358  -0.09328358  0.50000000 1
    0.08955224  -0.08955224  0.50000000 1
    0.08582090  -0.08582090  0.50000000 1
    0.08208955  -0.08208955  0.50000000 1
    0.07835821  -0.07835821  0.50000000 1
    0.07462687  -0.07462687  0.50000000 1
    0.07089552  -0.07089552  0.50000000 1
    0.06716418  -0.06716418  0.50000000 1
    0.06343284  -0.06343284  0.50000000 1
    0.05970149  -0.05970149  0.50000000 1
    0.05597015  -0.05597015  0.50000000 1
    0.05223881  -0.05223881  0.50000000 1
    0.04850746  -0.04850746  0.50000000 1
    0.04477612  -0.04477612  0.50000000 1
    0.04104478  -0.04104478  0.50000000 1
    0.03731343  -0.03731343  0.50000000 1
    0.03358209  -0.03358209  0.50000000 1
    0.02985075  -0.02985075  0.50000000 1
    0.02611940  -0.02611940  0.50000000 1
    0.02238806  -0.02238806  0.50000000 1
    0.01865672  -0.01865672  0.50000000 1
    0.01492537  -0.01492537  0.50000000 1
    0.01119403  -0.01119403  0.50000000 1
    0.00746269  -0.00746269  0.50000000 1
    0.00373134  -0.00373134  0.50000000 1
    0.00000000  0.00000000  0.50000000 1
    0.00000000  0.00000000  0.49626866 1
    0.00000000  0.00000000  0.49253731 1
    0.00000000  0.00000000  0.48880597 1
    0.00000000  0.00000000  0.48507463 1
    0.00000000  0.00000000  0.48134328 1
    0.00000000  0.00000000  0.47761194 1
    0.00000000  0.00000000  0.47388060 1
    0.00000000  0.00000000  0.47014925 1
    0.00000000  0.00000000  0.46641791 1
    0.00000000  0.00000000  0.46268657 1
    0.00000000  0.00000000  0.45895522 1
    0.00000000  0.00000000  0.45522388 1
    0.00000000  0.00000000  0.45149254 1
    0.00000000  0.00000000  0.44776119 1
    0.00000000  0.00000000  0.44402985 1
    0.00000000  0.00000000  0.44029851 1
    0.00000000  0.00000000  0.43656716 1
    0.00000000  0.00000000  0.43283582 1
    0.00000000  0.00000000  0.42910448 1
    0.00000000  0.00000000  0.42537313 1
    0.00000000  0.00000000  0.42164179 1
    0.00000000  0.00000000  0.41791045 1
    0.00000000  0.00000000  0.41417910 1
    0.00000000  0.00000000  0.41044776 1
    0.00000000  0.00000000  0.40671642 1
    0.00000000  0.00000000  0.40298507 1
    0.00000000  0.00000000  0.39925373 1
    0.00000000  0.00000000  0.39552239 1
    0.00000000  0.00000000  0.39179104 1
    0.00000000  0.00000000  0.38805970 1
    0.00000000  0.00000000  0.38432836 1
    0.00000000  0.00000000  0.38059701 1
    0.00000000  0.00000000  0.37686567 1
    0.00000000  0.00000000  0.37313433 1
    0.00000000  0.00000000  0.36940299 1
    0.00000000  0.00000000  0.36567164 1
    0.00000000  0.00000000  0.36194030 1
    0.00000000  0.00000000  0.35820896 1
    0.00000000  0.00000000  0.35447761 1
    0.00000000  0.00000000  0.35074627 1
    0.00000000  0.00000000  0.34701493 1
    0.00000000  0.00000000  0.34328358 1
    0.00000000  0.00000000  0.33955224 1
    0.00000000  0.00000000  0.33582090 1
    0.00000000  0.00000000  0.33208955 1
    0.00000000  0.00000000  0.32835821 1
    0.00000000  0.00000000  0.32462687 1
    0.00000000  0.00000000  0.32089552 1
    0.00000000  0.00000000  0.31716418 1
    0.00000000  0.00000000  0.31343284 1
    0.00000000  0.00000000  0.30970149 1
    0.00000000  0.00000000  0.30597015 1
    0.00000000  0.00000000  0.30223881 1
    0.00000000  0.00000000  0.29850746 1
    0.00000000  0.00000000  0.29477612 1
    0.00000000  0.00000000  0.29104478 1
    0.00000000  0.00000000  0.28731343 1
    0.00000000  0.00000000  0.28358209 1
    0.00000000  0.00000000  0.27985075 1
    0.00000000  0.00000000  0.27611940 1
    0.00000000  0.00000000  0.27238806 1
    0.00000000  0.00000000  0.26865672 1
    0.00000000  0.00000000  0.26492537 1
    0.00000000  0.00000000  0.26119403 1
    0.00000000  0.00000000  0.25746269 1
    0.00000000  0.00000000  0.25373134 1
    0.00000000  0.00000000  0.25000000 1
    0.00000000  0.00000000  0.24626866 1
    0.00000000  0.00000000  0.24253731 1
    0.00000000  0.00000000  0.23880597 1
    0.00000000  0.00000000  0.23507463 1
    0.00000000  0.00000000  0.23134328 1
    0.00000000  0.00000000  0.22761194 1
    0.00000000  0.00000000  0.22388060 1
    0.00000000  0.00000000  0.22014925 1
    0.00000000  0.00000000  0.21641791 1
    0.00000000  0.00000000  0.21268657 1
    0.00000000  0.00000000  0.20895522 1
    0.00000000  0.00000000  0.20522388 1
    0.00000000  0.00000000  0.20149254 1
    0.00000000  0.00000000  0.19776119 1
    0.00000000  0.00000000  0.19402985 1
    0.00000000  0.00000000  0.19029851 1
    0.00000000  0.00000000  0.18656716 1
    0.00000000  0.00000000  0.18283582 1
    0.00000000  0.00000000  0.17910448 1
    0.00000000  0.00000000  0.17537313 1
    0.00000000  0.00000000  0.17164179 1
    0.00000000  0.00000000  0.16791045 1
    0.00000000  0.00000000  0.16417910 1
    0.00000000  0.00000000  0.16044776 1
    0.00000000  0.00000000  0.15671642 1
    0.00000000  0.00000000  0.15298507 1
    0.00000000  0.00000000  0.14925373 1
    0.00000000  0.00000000  0.14552239 1
    0.00000000  0.00000000  0.14179104 1
    0.00000000  0.00000000  0.13805970 1
    0.00000000  0.00000000  0.13432836 1
    0.00000000  0.00000000  0.13059701 1
    0.00000000  0.00000000  0.12686567 1
    0.00000000  0.00000000  0.12313433 1
    0.00000000  0.00000000  0.11940299 1
    0.00000000  0.00000000  0.11567164 1
    0.00000000  0.00000000  0.11194030 1
    0.00000000  0.00000000  0.10820896 1
    0.00000000  0.00000000  0.10447761 1
    0.00000000  0.00000000  0.10074627 1
    0.00000000  0.00000000  0.09701493 1
    0.00000000  0.00000000  0.09328358 1
    0.00000000  0.00000000  0.08955224 1
    0.00000000  0.00000000  0.08582090 1
    0.00000000  0.00000000  0.08208955 1
    0.00000000  0.00000000  0.07835821 1
    0.00000000  0.00000000  0.07462687 1
    0.00000000  0.00000000  0.07089552 1
    0.00000000  0.00000000  0.06716418 1
    0.00000000  0.00000000  0.06343284 1
    0.00000000  0.00000000  0.05970149 1
    0.00000000  0.00000000  0.05597015 1
    0.00000000  0.00000000  0.05223881 1
    0.00000000  0.00000000  0.04850746 1
    0.00000000  0.00000000  0.04477612 1
    0.00000000  0.00000000  0.04104478 1
    0.00000000  0.00000000  0.03731343 1
    0.00000000  0.00000000  0.03358209 1
    0.00000000  0.00000000  0.02985075 1
    0.00000000  0.00000000  0.02611940 1
    0.00000000  0.00000000  0.02238806 1
    0.00000000  0.00000000  0.01865672 1
    0.00000000  0.00000000  0.01492537 1
    0.00000000  0.00000000  0.01119403 1
    0.00000000  0.00000000  0.00746269 1
    0.00000000  0.00000000  0.00373134 1
    0.00000000  0.00000000  0.00000000 1
    0.00151515  0.00151515  0.00151515 1
    0.00303030  0.00303030  0.00303030 1
    0.00454545  0.00454545  0.00454545 1
    0.00606061  0.00606061  0.00606061 1
    0.00757576  0.00757576  0.00757576 1
    0.00909091  0.00909091  0.00909091 1
    0.01060606  0.01060606  0.01060606 1
    0.01212121  0.01212121  0.01212121 1
    0.01363636  0.01363636  0.01363636 1
    0.01515152  0.01515152  0.01515152 1
    0.01666667  0.01666667  0.01666667 1
    0.01818182  0.01818182  0.01818182 1
    0.01969697  0.01969697  0.01969697 1
    0.02121212  0.02121212  0.02121212 1
    0.02272727  0.02272727  0.02272727 1
    0.02424242  0.02424242  0.02424242 1
    0.02575758  0.02575758  0.02575758 1
    0.02727273  0.02727273  0.02727273 1
    0.02878788  0.02878788  0.02878788 1
    0.03030303  0.03030303  0.03030303 1
    0.03181818  0.03181818  0.03181818 1
    0.03333333  0.03333333  0.03333333 1
    0.03484848  0.03484848  0.03484848 1
    0.03636364  0.03636364  0.03636364 1
    0.03787879  0.03787879  0.03787879 1
    0.03939394  0.03939394  0.03939394 1
    0.04090909  0.04090909  0.04090909 1
    0.04242424  0.04242424  0.04242424 1
    0.04393939  0.04393939  0.04393939 1
    0.04545455  0.04545455  0.04545455 1
    0.04696970  0.04696970  0.04696970 1
    0.04848485  0.04848485  0.04848485 1
    0.05000000  0.05000000  0.05000000 1
    0.05151515  0.05151515  0.05151515 1
    0.05303030  0.05303030  0.05303030 1
    0.05454545  0.05454545  0.05454545 1
    0.05606061  0.05606061  0.05606061 1
    0.05757576  0.05757576  0.05757576 1
    0.05909091  0.05909091  0.05909091 1
    0.06060606  0.06060606  0.06060606 1
    0.06212121  0.06212121  0.06212121 1
    0.06363636  0.06363636  0.06363636 1
    0.06515152  0.06515152  0.06515152 1
    0.06666667  0.06666667  0.06666667 1
    0.06818182  0.06818182  0.06818182 1
    0.06969697  0.06969697  0.06969697 1
    0.07121212  0.07121212  0.07121212 1
    0.07272727  0.07272727  0.07272727 1
    0.07424242  0.07424242  0.07424242 1
    0.07575758  0.07575758  0.07575758 1
    0.07727273  0.07727273  0.07727273 1
    0.07878788  0.07878788  0.07878788 1
    0.08030303  0.08030303  0.08030303 1
    0.08181818  0.08181818  0.08181818 1
    0.08333333  0.08333333  0.08333333 1
    0.08484848  0.08484848  0.08484848 1
    0.08636364  0.08636364  0.08636364 1
    0.08787879  0.08787879  0.08787879 1
    0.08939394  0.08939394  0.08939394 1
    0.09090909  0.09090909  0.09090909 1
    0.09242424  0.09242424  0.09242424 1
    0.09393939  0.09393939  0.09393939 1
    0.09545455  0.09545455  0.09545455 1
    0.09696970  0.09696970  0.09696970 1
    0.09848485  0.09848485  0.09848485 1
    0.10000000  0.10000000  0.10000000 1
    0.10151515  0.10151515  0.10151515 1
    0.10303030  0.10303030  0.10303030 1
    0.10454545  0.10454545  0.10454545 1
    0.10606061  0.10606061  0.10606061 1
    0.10757576  0.10757576  0.10757576 1
    0.10909091  0.10909091  0.10909091 1
    0.11060606  0.11060606  0.11060606 1
    0.11212121  0.11212121  0.11212121 1
    0.11363636  0.11363636  0.11363636 1
    0.11515152  0.11515152  0.11515152 1
    0.11666667  0.11666667  0.11666667 1
    0.11818182  0.11818182  0.11818182 1
    0.11969697  0.11969697  0.11969697 1
    0.12121212  0.12121212  0.12121212 1
    0.12272727  0.12272727  0.12272727 1
    0.12424242  0.12424242  0.12424242 1
    0.12575758  0.12575758  0.12575758 1
    0.12727273  0.12727273  0.12727273 1
    0.12878788  0.12878788  0.12878788 1
    0.13030303  0.13030303  0.13030303 1
    0.13181818  0.13181818  0.13181818 1
    0.13333333  0.13333333  0.13333333 1
    0.13484848  0.13484848  0.13484848 1
    0.13636364  0.13636364  0.13636364 1
    0.13787879  0.13787879  0.13787879 1
    0.13939394  0.13939394  0.13939394 1
    0.14090909  0.14090909  0.14090909 1
    0.14242424  0.14242424  0.14242424 1
    0.14393939  0.14393939  0.14393939 1
    0.14545455  0.14545455  0.14545455 1
    0.14696970  0.14696970  0.14696970 1
    0.14848485  0.14848485  0.14848485 1
    0.15000000  0.15000000  0.15000000 1
    0.15151515  0.15151515  0.15151515 1
    0.15303030  0.15303030  0.15303030 1
    0.15454545  0.15454545  0.15454545 1
    0.15606061  0.15606061  0.15606061 1
    0.15757576  0.15757576  0.15757576 1
    0.15909091  0.15909091  0.15909091 1
    0.16060606  0.16060606  0.16060606 1
    0.16212121  0.16212121  0.16212121 1
    0.16363636  0.16363636  0.16363636 1
    0.16515152  0.16515152  0.16515152 1
    0.16666667  0.16666667  0.16666667 1
    0.16818182  0.16818182  0.16818182 1
    0.16969697  0.16969697  0.16969697 1
    0.17121212  0.17121212  0.17121212 1
    0.17272727  0.17272727  0.17272727 1
    0.17424242  0.17424242  0.17424242 1
    0.17575758  0.17575758  0.17575758 1
    0.17727273  0.17727273  0.17727273 1
    0.17878788  0.17878788  0.17878788 1
    0.18030303  0.18030303  0.18030303 1
    0.18181818  0.18181818  0.18181818 1
    0.18333333  0.18333333  0.18333333 1
    0.18484848  0.18484848  0.18484848 1
    0.18636364  0.18636364  0.18636364 1
    0.18787879  0.18787879  0.18787879 1
    0.18939394  0.18939394  0.18939394 1
    0.19090909  0.19090909  0.19090909 1
    0.19242424  0.19242424  0.19242424 1
    0.19393939  0.19393939  0.19393939 1
    0.19545455  0.19545455  0.19545455 1
    0.19696970  0.19696970  0.19696970 1
    0.19848485  0.19848485  0.19848485 1
    0.20000000  0.20000000  0.20000000 1
    0.20151515  0.20151515  0.20151515 1
    0.20303030  0.20303030  0.20303030 1
    0.20454545  0.20454545  0.20454545 1
    0.20606061  0.20606061  0.20606061 1
    0.20757576  0.20757576  0.20757576 1
    0.20909091  0.20909091  0.20909091 1
    0.21060606  0.21060606  0.21060606 1
    0.21212121  0.21212121  0.21212121 1
    0.21363636  0.21363636  0.21363636 1
    0.21515152  0.21515152  0.21515152 1
    0.21666667  0.21666667  0.21666667 1
    0.21818182  0.21818182  0.21818182 1
    0.21969697  0.21969697  0.21969697 1
    0.22121212  0.22121212  0.22121212 1
    0.22272727  0.22272727  0.22272727 1
    0.22424242  0.22424242  0.22424242 1
    0.22575758  0.22575758  0.22575758 1
    0.22727273  0.22727273  0.22727273 1
    0.22878788  0.22878788  0.22878788 1
    0.23030303  0.23030303  0.23030303 1
    0.23181818  0.23181818  0.23181818 1
    0.23333333  0.23333333  0.23333333 1
    0.23484848  0.23484848  0.23484848 1
    0.23636364  0.23636364  0.23636364 1
    0.23787879  0.23787879  0.23787879 1
    0.23939394  0.23939394  0.23939394 1
    0.24090909  0.24090909  0.24090909 1
    0.24242424  0.24242424  0.24242424 1
    0.24393939  0.24393939  0.24393939 1
    0.24545455  0.24545455  0.24545455 1
    0.24696970  0.24696970  0.24696970 1
    0.24848485  0.24848485  0.24848485 1
    0.25000000  0.25000000  0.25000000 1
    0.25151515  0.24545455  0.25151515 1
    0.25303030  0.24090909  0.25303030 1
    0.25454545  0.23636364  0.25454545 1
    0.25606061  0.23181818  0.25606061 1
    0.25757576  0.22727273  0.25757576 1
    0.25909091  0.22272727  0.25909091 1
    0.26060606  0.21818182  0.26060606 1
    0.26212121  0.21363636  0.26212121 1
    0.26363636  0.20909091  0.26363636 1
    0.26515152  0.20454545  0.26515152 1
    0.26666667  0.20000000  0.26666667 1
    0.26818182  0.19545455  0.26818182 1
    0.26969697  0.19090909  0.26969697 1
    0.27121212  0.18636364  0.27121212 1
    0.27272727  0.18181818  0.27272727 1
    0.27424242  0.17727273  0.27424242 1
    0.27575758  0.17272727  0.27575758 1
    0.27727273  0.16818182  0.27727273 1
    0.27878788  0.16363636  0.27878788 1
    0.28030303  0.15909091  0.28030303 1
    0.28181818  0.15454545  0.28181818 1
    0.28333333  0.15000000  0.28333333 1
    0.28484848  0.14545455  0.28484848 1
    0.28636364  0.14090909  0.28636364 1
    0.28787879  0.13636364  0.28787879 1
    0.28939394  0.13181818  0.28939394 1
    0.29090909  0.12727273  0.29090909 1
    0.29242424  0.12272727  0.29242424 1
    0.29393939  0.11818182  0.29393939 1
    0.29545455  0.11363636  0.29545455 1
    0.29696970  0.10909091  0.29696970 1
    0.29848485  0.10454545  0.29848485 1
    0.30000000  0.10000000  0.30000000 1
    0.30151515  0.09545455  0.30151515 1
    0.30303030  0.09090909  0.30303030 1
    0.30454545  0.08636364  0.30454545 1
    0.30606061  0.08181818  0.30606061 1
    0.30757576  0.07727273  0.30757576 1
    0.30909091  0.07272727  0.30909091 1
    0.31060606  0.06818182  0.31060606 1
    0.31212121  0.06363636  0.31212121 1
    0.31363636  0.05909091  0.31363636 1
    0.31515152  0.05454545  0.31515152 1
    0.31666667  0.05000000  0.31666667 1
    0.31818182  0.04545455  0.31818182 1
    0.31969697  0.04090909  0.31969697 1
    0.32121212  0.03636364  0.32121212 1
    0.32272727  0.03181818  0.32272727 1
    0.32424242  0.02727273  0.32424242 1
    0.32575758  0.02272727  0.32575758 1
    0.32727273  0.01818182  0.32727273 1
    0.32878788  0.01363636  0.32878788 1
    0.33030303  0.00909091  0.33030303 1
    0.33181818  0.00454545  0.33181818 1
    0.33333333  0.00000000  0.33333333 1
    0.33484848  -0.00454545  0.33484848 1
    0.33636364  -0.00909091  0.33636364 1
    0.33787879  -0.01363636  0.33787879 1
    0.33939394  -0.01818182  0.33939394 1
    0.34090909  -0.02272727  0.34090909 1
    0.34242424  -0.02727273  0.34242424 1
    0.34393939  -0.03181818  0.34393939 1
    0.34545455  -0.03636364  0.34545455 1
    0.34696970  -0.04090909  0.34696970 1
    0.34848485  -0.04545455  0.34848485 1
    0.35000000  -0.05000000  0.35000000 1
    0.35151515  -0.05454545  0.35151515 1
    0.35303030  -0.05909091  0.35303030 1
    0.35454545  -0.06363636  0.35454545 1
    0.35606061  -0.06818182  0.35606061 1
    0.35757576  -0.07272727  0.35757576 1
    0.35909091  -0.07727273  0.35909091 1
    0.36060606  -0.08181818  0.36060606 1
    0.36212121  -0.08636364  0.36212121 1
    0.36363636  -0.09090909  0.36363636 1
    0.36515152  -0.09545455  0.36515152 1
    0.36666667  -0.10000000  0.36666667 1
    0.36818182  -0.10454545  0.36818182 1
    0.36969697  -0.10909091  0.36969697 1
    0.37121212  -0.11363636  0.37121212 1