&PROJWFC
  prefix= 'nbti',
  outdir= './',
  filpdos= 'nbti_pdos.dat'
/
