&CONTROL
  calculation = 'vc-relax',
  etot_conv_thr = 2d-06,
  forc_conv_thr = 2d-05,
  outdir = './',
  prefix = 'hea',
  pseudo_dir = '../../pseudo/',
  tprnfor = .TRUE.,
  tstress = .TRUE.,
  verbosity = 'low',
/
&SYSTEM
  degauss = 0.015,
  ecutrho = 340.0,
  ecutwfc = 85.0,
  ibrav = 0,
  nosym = .FALSE.,
  occupations = 'smearing',
  smearing = 'gauss',
  nat = 20,
  ntyp = 5,
/
&ELECTRONS
  conv_thr = 1d-10,
  diago_david_ndim = 8,
  electron_maxstep = 200,
  mixing_beta = 0.7,
  mixing_mode = 'local-TF',
/
&IONS
  ion_dynamics = 'bfgs',
  trust_radius_min = 1d-06,
/
&CELL
  cell_dynamics = 'bfgs',
  press = 1500,
  press_conv_thr = 0.1,
/
ATOMIC_SPECIES
  Hf  178.4900 Hf.upf
  Nb  92.9064 Nb.upf
  Ta  180.9479 Ta.upf
  Ti  47.8670 Ti.upf
  Zr  91.2240 Zr.upf
ATOMIC_POSITIONS crystal
  Hf 0.601340779600 0.601340284700 0.900904424700
  Hf 0.397876549000 0.397876268600 0.844371726800
  Zr 0.599493038100 0.599493723100 0.147931821300
  Zr 0.806410557200 0.806411005400 0.459853239800
  Ta 0.796771715900 0.796771947200 0.197008850700
  Ta 0.397932339400 0.397932468900 0.100681461600
  Ta 0.600921572300 0.600921697900 0.401256014300
  Ta 0.203903771000 0.203904404000 0.301818281900
  Ta 0.000182838400 0.000183087100 0.251117781800
  Ta -0.001385566200 -0.001386042000 0.750673946600
  Ta 0.801918508000 0.801918289000 0.948827247000
  Ti 0.399686555300 0.399686414600 0.596492135800
  Ti 0.199449249400 0.199449196700 0.046306758900
  Nb 0.797618832500 0.797618560500 0.697484783800
  Nb 0.005338516600 0.005338639000 0.003165487700
  Nb -0.001402032600 -0.001402122100 0.500203602300
  Nb 0.197207599900 0.197207200900 0.800678859500
  Nb 0.399045134500 0.399045301100 0.349242011900
  Nb 0.200700009900 0.200699939000 0.552942938700
  Nb 0.596990031800 0.596989736500 0.649038624700
K_POINTS automatic
  9 9 4 0 0 0
CELL_PARAMETERS angstrom
      6.2337992280     -0.0051042850     -3.3330040050
      4.8920333980	3.8637117900     -3.3330048330
     -0.0021414730     -0.0007373570      9.9851769350
