&CONTROL
  calculation = 'scf',
  prefix = 'hea',
  pseudo_dir = '../../pseudo/',
  tprnfor = .TRUE.,
  tstress = .TRUE.,
  verbosity = 'low',
/
&SYSTEM
  degauss = 0.015,
  ecutrho = 340.0,
  ecutwfc = 85.0,
  ibrav = 0,
  nosym = .FALSE.,
  occupations = 'smearing',
  smearing = 'gauss',
  nat = 20,
  ntyp = 5,
/
&ELECTRONS
  conv_thr = 1d-10,
  electron_maxstep = 80,
  mixing_beta = 0.5,
  mixing_mode = 'local-TF',
/
&IONS
/
&CELL
/
ATOMIC_SPECIES
  Hf  178.4900 Hf.upf
  Nb  92.9064 Nb.upf
  Ta  180.9479 Ta.upf
  Ti  47.8670 Ti.upf
  Zr  91.2240 Zr.upf
ATOMIC_POSITIONS crystal
  Hf 0.601279291600 0.601279256000 0.900974440100
  Hf 0.397805527300 0.397805491000 0.844395006700
  Zr 0.599461434300 0.599461456500 0.147917271800
  Zr 0.806392030100 0.806392062600 0.459808008100
  Ta 0.796774744300 0.796774778800 0.196997770600
  Ta 0.397870170500 0.397870184100 0.100588175600
  Ta 0.600946066700 0.600946092500 0.401164978700
  Ta 0.203955831400 0.203955870800 0.301879951000
  Ta 0.000192563800 0.000192593000 0.251091420400
  Ta -0.001315413500 -0.001315454300 0.750752311100
  Ta 0.801830888800 0.801830876100 0.948713033500
  Ti 0.399727237900 0.399727222200 0.596682975100
  Ti 0.199504234800 0.199504236400 0.046410536100
  Nb 0.797720433200 0.797720398100 0.697493193100
  Nb 0.005347392300 0.005347378500 0.003177549600
  Nb -0.001441319400 -0.001441307900 0.500102954200
  Nb 0.197168752300 0.197168720200 0.800616456000
  Nb 0.399078142000 0.399078178500 0.349251758600
  Nb 0.200686119700 0.200686117400 0.552934786500
  Nb 0.597015871800 0.597015849500 0.649047423100
K_POINTS automatic
  9 9 4 0 0 0
CELL_PARAMETERS angstrom
      6.2304197540     -0.0054842760     -3.3410315000
      4.8891439990      3.8619194050     -3.3410329620
     -0.0095622220     -0.0033126260      9.9953499660