&bands
  prefix = 'nb'
  outdir = './'
  filband = 'Nb_band.dat'
/
