&CONTROL
  calculation = 'bands',
  prefix = 'nb',
  pseudo_dir = '../../pseudo/',
  verbosity = 'low',
/
&SYSTEM
  degauss = 0.015,
  ecutrho = 340,
  ecutwfc = 85.0,
  ibrav = 0,
  nbnd = 14,
  nosym = .FALSE.,
  occupations = 'smearing',
  smearing = 'gauss',
  nat = 1,
  ntyp = 1,
/
&ELECTRONS
  conv_thr = 1d-10,
  diagonalization = 'davidson',
  electron_maxstep = 40,
  mixing_beta = 0.7,
/
&IONS
/
&CELL
/
ATOMIC_SPECIES
  Nb  92.9064 Nb.upf
ATOMIC_POSITIONS crystal
  Nb 0.000000000000 0.000000000000 0.000000000000
CELL_PARAMETERS angstrom
      1.5818901550      1.5818901550      1.5818901550
      1.5818901550     -1.5818901550     -1.5818901550
     -1.5818901550      1.5818901550     -1.5818901550
K_POINTS crystal
829
    0.00000000  0.00000000  0.00000000 1
    0.00250000  -0.00250000  0.00250000 1
    0.00500000  -0.00500000  0.00500000 1
    0.00750000  -0.00750000  0.00750000 1
    0.01000000  -0.01000000  0.01000000 1
    0.01250000  -0.01250000  0.01250000 1
    0.01500000  -0.01500000  0.01500000 1
    0.01750000  -0.01750000  0.01750000 1
    0.02000000  -0.02000000  0.02000000 1
    0.02250000  -0.02250000  0.02250000 1
    0.02500000  -0.02500000  0.02500000 1
    0.02750000  -0.02750000  0.02750000 1
    0.03000000  -0.03000000  0.03000000 1
    0.03250000  -0.03250000  0.03250000 1
    0.03500000  -0.03500000  0.03500000 1
    0.03750000  -0.03750000  0.03750000 1
    0.04000000  -0.04000000  0.04000000 1
    0.04250000  -0.04250000  0.04250000 1
    0.04500000  -0.04500000  0.04500000 1
    0.04750000  -0.04750000  0.04750000 1
    0.05000000  -0.05000000  0.05000000 1
    0.05250000  -0.05250000  0.05250000 1
    0.05500000  -0.05500000  0.05500000 1
    0.05750000  -0.05750000  0.05750000 1
    0.06000000  -0.06000000  0.06000000 1
    0.06250000  -0.06250000  0.06250000 1
    0.06500000  -0.06500000  0.06500000 1
    0.06750000  -0.06750000  0.06750000 1
    0.07000000  -0.07000000  0.07000000 1
    0.07250000  -0.07250000  0.07250000 1
    0.07500000  -0.07500000  0.07500000 1
    0.07750000  -0.07750000  0.07750000 1
    0.08000000  -0.08000000  0.08000000 1
    0.08250000  -0.08250000  0.08250000 1
    0.08500000  -0.08500000  0.08500000 1
    0.08750000  -0.08750000  0.08750000 1
    0.09000000  -0.09000000  0.09000000 1
    0.09250000  -0.09250000  0.09250000 1
    0.09500000  -0.09500000  0.09500000 1
    0.09750000  -0.09750000  0.09750000 1
    0.10000000  -0.10000000  0.10000000 1
    0.10250000  -0.10250000  0.10250000 1
    0.10500000  -0.10500000  0.10500000 1
    0.10750000  -0.10750000  0.10750000 1
    0.11000000  -0.11000000  0.11000000 1
    0.11250000  -0.11250000  0.11250000 1
    0.11500000  -0.11500000  0.11500000 1
    0.11750000  -0.11750000  0.11750000 1
    0.12000000  -0.12000000  0.12000000 1
    0.12250000  -0.12250000  0.12250000 1
    0.12500000  -0.12500000  0.12500000 1
    0.12750000  -0.12750000  0.12750000 1
    0.13000000  -0.13000000  0.13000000 1
    0.13250000  -0.13250000  0.13250000 1
    0.13500000  -0.13500000  0.13500000 1
    0.13750000  -0.13750000  0.13750000 1
    0.14000000  -0.14000000  0.14000000 1
    0.14250000  -0.14250000  0.14250000 1
    0.14500000  -0.14500000  0.14500000 1
    0.14750000  -0.14750000  0.14750000 1
    0.15000000  -0.15000000  0.15000000 1
    0.15250000  -0.15250000  0.15250000 1
    0.15500000  -0.15500000  0.15500000 1
    0.15750000  -0.15750000  0.15750000 1
    0.16000000  -0.16000000  0.16000000 1
    0.16250000  -0.16250000  0.16250000 1
    0.16500000  -0.16500000  0.16500000 1
    0.16750000  -0.16750000  0.16750000 1
    0.17000000  -0.17000000  0.17000000 1
    0.17250000  -0.17250000  0.17250000 1
    0.17500000  -0.17500000  0.17500000 1
    0.17750000  -0.17750000  0.17750000 1
    0.18000000  -0.18000000  0.18000000 1
    0.18250000  -0.18250000  0.18250000 1
    0.18500000  -0.18500000  0.18500000 1
    0.18750000  -0.18750000  0.18750000 1
    0.19000000  -0.19000000  0.19000000 1
    0.19250000  -0.19250000  0.19250000 1
    0.19500000  -0.19500000  0.19500000 1
    0.19750000  -0.19750000  0.19750000 1
    0.20000000  -0.20000000  0.20000000 1
    0.20250000  -0.20250000  0.20250000 1
    0.20500000  -0.20500000  0.20500000 1
    0.20750000  -0.20750000  0.20750000 1
    0.21000000  -0.21000000  0.21000000 1
    0.21250000  -0.21250000  0.21250000 1
    0.21500000  -0.21500000  0.21500000 1
    0.21750000  -0.21750000  0.21750000 1
    0.22000000  -0.22000000  0.22000000 1
    0.22250000  -0.22250000  0.22250000 1
    0.22500000  -0.22500000  0.22500000 1
    0.22750000  -0.22750000  0.22750000 1
    0.23000000  -0.23000000  0.23000000 1
    0.23250000  -0.23250000  0.23250000 1
    0.23500000  -0.23500000  0.23500000 1
    0.23750000  -0.23750000  0.23750000 1
    0.24000000  -0.24000000  0.24000000 1
    0.24250000  -0.24250000  0.24250000 1
    0.24500000  -0.24500000  0.24500000 1
    0.24750000  -0.24750000  0.24750000 1
    0.25000000  -0.25000000  0.25000000 1
    0.25250000  -0.25250000  0.25250000 1
    0.25500000  -0.25500000  0.25500000 1
    0.25750000  -0.25750000  0.25750000 1
    0.26000000  -0.26000000  0.26000000 1
    0.26250000  -0.26250000  0.26250000 1
    0.26500000  -0.26500000  0.26500000 1
    0.26750000  -0.26750000  0.26750000 1
    0.27000000  -0.27000000  0.27000000 1
    0.27250000  -0.27250000  0.27250000 1
    0.27500000  -0.27500000  0.27500000 1
    0.27750000  -0.27750000  0.27750000 1
    0.28000000  -0.28000000  0.28000000 1
    0.28250000  -0.28250000  0.28250000 1
    0.28500000  -0.28500000  0.28500000 1
    0.28750000  -0.28750000  0.28750000 1
    0.29000000  -0.29000000  0.29000000 1
    0.29250000  -0.29250000  0.29250000 1
    0.29500000  -0.29500000  0.29500000 1
    0.29750000  -0.29750000  0.29750000 1
    0.30000000  -0.30000000  0.30000000 1
    0.30250000  -0.30250000  0.30250000 1
    0.30500000  -0.30500000  0.30500000 1
    0.30750000  -0.30750000  0.30750000 1
    0.31000000  -0.31000000  0.31000000 1
    0.31250000  -0.31250000  0.31250000 1
    0.31500000  -0.31500000  0.31500000 1
    0.31750000  -0.31750000  0.31750000 1
    0.32000000  -0.32000000  0.32000000 1
    0.32250000  -0.32250000  0.32250000 1
    0.32500000  -0.32500000  0.32500000 1
    0.32750000  -0.32750000  0.32750000 1
    0.33000000  -0.33000000  0.33000000 1
    0.33250000  -0.33250000  0.33250000 1
    0.33500000  -0.33500000  0.33500000 1
    0.33750000  -0.33750000  0.33750000 1
    0.34000000  -0.34000000  0.34000000 1
    0.34250000  -0.34250000  0.34250000 1
    0.34500000  -0.34500000  0.34500000 1
    0.34750000  -0.34750000  0.34750000 1
    0.35000000  -0.35000000  0.35000000 1
    0.35250000  -0.35250000  0.35250000 1
    0.35500000  -0.35500000  0.35500000 1
    0.35750000  -0.35750000  0.35750000 1
    0.36000000  -0.36000000  0.36000000 1
    0.36250000  -0.36250000  0.36250000 1
    0.36500000  -0.36500000  0.36500000 1
    0.36750000  -0.36750000  0.36750000 1
    0.37000000  -0.37000000  0.37000000 1
    0.37250000  -0.37250000  0.37250000 1
    0.37500000  -0.37500000  0.37500000 1
    0.37750000  -0.37750000  0.37750000 1
    0.38000000  -0.38000000  0.38000000 1
    0.38250000  -0.38250000  0.38250000 1
    0.38500000  -0.38500000  0.38500000 1
    0.38750000  -0.38750000  0.38750000 1
    0.39000000  -0.39000000  0.39000000 1
    0.39250000  -0.39250000  0.39250000 1
    0.39500000  -0.39500000  0.39500000 1
    0.39750000  -0.39750000  0.39750000 1
    0.40000000  -0.40000000  0.40000000 1
    0.40250000  -0.40250000  0.40250000 1
    0.40500000  -0.40500000  0.40500000 1
    0.40750000  -0.40750000  0.40750000 1
    0.41000000  -0.41000000  0.41000000 1
    0.41250000  -0.41250000  0.41250000 1
    0.41500000  -0.41500000  0.41500000 1
    0.41750000  -0.41750000  0.41750000 1
    0.42000000  -0.42000000  0.42000000 1
    0.42250000  -0.42250000  0.42250000 1
    0.42500000  -0.42500000  0.42500000 1
    0.42750000  -0.42750000  0.42750000 1
    0.43000000  -0.43000000  0.43000000 1
    0.43250000  -0.43250000  0.43250000 1
    0.43500000  -0.43500000  0.43500000 1
    0.43750000  -0.43750000  0.43750000 1
    0.44000000  -0.44000000  0.44000000 1
    0.44250000  -0.44250000  0.44250000 1
    0.44500000  -0.44500000  0.44500000 1
    0.44750000  -0.44750000  0.44750000 1
    0.45000000  -0.45000000  0.45000000 1
    0.45250000  -0.45250000  0.45250000 1
    0.45500000  -0.45500000  0.45500000 1
    0.45750000  -0.45750000  0.45750000 1
    0.46000000  -0.46000000  0.46000000 1
    0.46250000  -0.46250000  0.46250000 1
    0.46500000  -0.46500000  0.46500000 1
    0.46750000  -0.46750000  0.46750000 1
    0.47000000  -0.47000000  0.47000000 1
    0.47250000  -0.47250000  0.47250000 1
    0.47500000  -0.47500000  0.47500000 1
    0.47750000  -0.47750000  0.47750000 1
    0.48000000  -0.48000000  0.48000000 1
    0.48250000  -0.48250000  0.48250000 1
    0.48500000  -0.48500000  0.48500000 1
    0.48750000  -0.48750000  0.48750000 1
    0.49000000  -0.49000000  0.49000000 1
    0.49250000  -0.49250000  0.49250000 1
    0.49500000  -0.49500000  0.49500000 1
    0.49750000  -0.49750000  0.49750000 1
    0.50000000  -0.50000000  0.50000000 1
    0.49645390  -0.49645390  0.50000000 1
    0.49290780  -0.49290780  0.50000000 1
    0.48936170  -0.48936170  0.50000000 1
    0.48581560  -0.48581560  0.50000000 1
    0.48226950  -0.48226950  0.50000000 1
    0.47872340  -0.47872340  0.50000000 1
    0.47517730  -0.47517730  0.50000000 1
    0.47163121  -0.47163121  0.50000000 1
    0.46808511  -0.46808511  0.50000000 1
    0.46453901  -0.46453901  0.50000000 1
    0.46099291  -0.46099291  0.50000000 1
    0.45744681  -0.45744681  0.50000000 1
    0.45390071  -0.45390071  0.50000000 1
    0.45035461  -0.45035461  0.50000000 1
    0.44680851  -0.44680851  0.50000000 1
    0.44326241  -0.44326241  0.50000000 1
    0.43971631  -0.43971631  0.50000000 1
    0.43617021  -0.43617021  0.50000000 1
    0.43262411  -0.43262411  0.50000000 1
    0.42907801  -0.42907801  0.50000000 1
    0.42553191  -0.42553191  0.50000000 1
    0.42198582  -0.42198582  0.50000000 1
    0.41843972  -0.41843972  0.50000000 1
    0.41489362  -0.41489362  0.50000000 1
    0.41134752  -0.41134752  0.50000000 1
    0.40780142  -0.40780142  0.50000000 1
    0.40425532  -0.40425532  0.50000000 1
    0.40070922  -0.40070922  0.50000000 1
    0.39716312  -0.39716312  0.50000000 1
    0.39361702  -0.39361702  0.50000000 1
    0.39007092  -0.39007092  0.50000000 1
    0.38652482  -0.38652482  0.50000000 1
    0.38297872  -0.38297872  0.50000000 1
    0.37943262  -0.37943262  0.50000000 1
    0.37588652  -0.37588652  0.50000000 1
    0.37234043  -0.37234043  0.50000000 1
    0.36879433  -0.36879433  0.50000000 1
    0.36524823  -0.36524823  0.50000000 1
    0.36170213  -0.36170213  0.50000000 1
    0.35815603  -0.35815603  0.50000000 1
    0.35460993  -0.35460993  0.50000000 1
    0.35106383  -0.35106383  0.50000000 1
    0.34751773  -0.34751773  0.50000000 1
    0.34397163  -0.34397163  0.50000000 1
    0.34042553  -0.34042553  0.50000000 1
    0.33687943  -0.33687943  0.50000000 1
    0.33333333  -0.33333333  0.50000000 1
    0.32978723  -0.32978723  0.50000000 1
    0.32624113  -0.32624113  0.50000000 1
    0.32269504  -0.32269504  0.50000000 1
    0.31914894  -0.31914894  0.50000000 1
    0.31560284  -0.31560284  0.50000000 1
    0.31205674  -0.31205674  0.50000000 1
    0.30851064  -0.30851064  0.50000000 1
    0.30496454  -0.30496454  0.50000000 1
    0.30141844  -0.30141844  0.50000000 1
    0.29787234  -0.29787234  0.50000000 1
    0.29432624  -0.29432624  0.50000000 1
    0.29078014  -0.29078014  0.50000000 1
    0.28723404  -0.28723404  0.50000000 1
    0.28368794  -0.28368794  0.50000000 1
    0.28014184  -0.28014184  0.50000000 1
    0.27659574  -0.27659574  0.50000000 1
    0.27304965  -0.27304965  0.50000000 1
    0.26950355  -0.26950355  0.50000000 1
    0.26595745  -0.26595745  0.50000000 1
    0.26241135  -0.26241135  0.50000000 1
    0.25886525  -0.25886525  0.50000000 1
    0.25531915  -0.25531915  0.50000000 1
    0.25177305  -0.25177305  0.50000000 1
    0.24822695  -0.24822695  0.50000000 1
    0.24468085  -0.24468085  0.50000000 1
    0.24113475  -0.24113475  0.50000000 1
    0.23758865  -0.23758865  0.50000000 1
    0.23404255  -0.23404255  0.50000000 1
    0.23049645  -0.23049645  0.50000000 1
    0.22695035  -0.22695035  0.50000000 1
    0.22340426  -0.22340426  0.50000000 1
    0.21985816  -0.21985816  0.50000000 1
    0.21631206  -0.21631206  0.50000000 1
    0.21276596  -0.21276596  0.50000000 1
    0.20921986  -0.20921986  0.50000000 1
    0.20567376  -0.20567376  0.50000000 1
    0.20212766  -0.20212766  0.50000000 1
    0.19858156  -0.19858156  0.50000000 1
    0.19503546  -0.19503546  0.50000000 1
    0.19148936  -0.19148936  0.50000000 1
    0.18794326  -0.18794326  0.50000000 1
    0.18439716  -0.18439716  0.50000000 1
    0.18085106  -0.18085106  0.50000000 1
    0.17730496  -0.17730496  0.50000000 1
    0.17375887  -0.17375887  0.50000000 1
    0.17021277  -0.17021277  0.50000000 1
    0.16666667  -0.16666667  0.50000000 1
    0.16312057  -0.16312057  0.50000000 1
    0.15957447  -0.15957447  0.50000000 1
    0.15602837  -0.15602837  0.50000000 1
    0.15248227  -0.15248227  0.50000000 1
    0.14893617  -0.14893617  0.50000000 1
    0.14539007  -0.14539007  0.50000000 1
    0.14184397  -0.14184397  0.50000000 1
    0.13829787  -0.13829787  0.50000000 1
    0.13475177  -0.13475177  0.50000000 1
    0.13120567  -0.13120567  0.50000000 1
    0.12765957  -0.12765957  0.50000000 1
    0.12411348  -0.12411348  0.50000000 1
    0.12056738  -0.12056738  0.50000000 1
    0.11702128  -0.11702128  0.50000000 1
    0.11347518  -0.11347518  0.50000000 1
    0.10992908  -0.10992908  0.50000000 1
    0.10638298  -0.10638298  0.50000000 1
    0.10283688  -0.10283688  0.50000000 1
    0.09929078  -0.09929078  0.50000000 1
    0.09574468  -0.09574468  0.50000000 1
    0.09219858  -0.09219858  0.50000000 1
    0.08865248  -0.08865248  0.50000000 1
    0.08510638  -0.08510638  0.50000000 1
    0.08156028  -0.08156028  0.50000000 1
    0.07801418  -0.07801418  0.50000000 1
    0.07446809  -0.07446809  0.50000000 1
    0.07092199  -0.07092199  0.50000000 1
    0.06737589  -0.06737589  0.50000000 1
    0.06382979  -0.06382979  0.50000000 1
    0.06028369  -0.06028369  0.50000000 1
    0.05673759  -0.05673759  0.50000000 1
    0.05319149  -0.05319149  0.50000000 1
    0.04964539  -0.04964539  0.50000000 1
    0.04609929  -0.04609929  0.50000000 1
    0.04255319  -0.04255319  0.50000000 1
    0.03900709  -0.03900709  0.50000000 1
    0.03546099  -0.03546099  0.50000000 1
    0.03191489  -0.03191489  0.50000000 1
    0.02836879  -0.02836879  0.50000000 1
    0.02482270  -0.02482270  0.50000000 1
    0.02127660  -0.02127660  0.50000000 1
    0.01773050  -0.01773050  0.50000000 1
    0.01418440  -0.01418440  0.50000000 1
    0.01063830  -0.01063830  0.50000000 1
    0.00709220  -0.00709220  0.50000000 1
    0.00354610  -0.00354610  0.50000000 1
    0.00000000  0.00000000  0.50000000 1
    0.00000000  0.00000000  0.49645390 1
    0.00000000  0.00000000  0.49290780 1
    0.00000000  0.00000000  0.48936170 1
    0.00000000  0.00000000  0.48581560 1
    0.00000000  0.00000000  0.48226950 1
    0.00000000  0.00000000  0.47872340 1
    0.00000000  0.00000000  0.47517730 1
    0.00000000  0.00000000  0.47163121 1
    0.00000000  0.00000000  0.46808511 1
    0.00000000  0.00000000  0.46453901 1
    0.00000000  0.00000000  0.46099291 1
    0.00000000  0.00000000  0.45744681 1
    0.00000000  0.00000000  0.45390071 1
    0.00000000  0.00000000  0.45035461 1
    0.00000000  0.00000000  0.44680851 1
    0.00000000  0.00000000  0.44326241 1
    0.00000000  0.00000000  0.43971631 1
    0.00000000  0.00000000  0.43617021 1
    0.00000000  0.00000000  0.43262411 1
    0.00000000  0.00000000  0.42907801 1
    0.00000000  0.00000000  0.42553191 1
    0.00000000  0.00000000  0.42198582 1
    0.00000000  0.00000000  0.41843972 1
    0.00000000  0.00000000  0.41489362 1
    0.00000000  0.00000000  0.41134752 1
    0.00000000  0.00000000  0.40780142 1
    0.00000000  0.00000000  0.40425532 1
    0.00000000  0.00000000  0.40070922 1
    0.00000000  0.00000000  0.39716312 1
    0.00000000  0.00000000  0.39361702 1
    0.00000000  0.00000000  0.39007092 1
    0.00000000  0.00000000  0.38652482 1
    0.00000000  0.00000000  0.38297872 1
    0.00000000  0.00000000  0.37943262 1
    0.00000000  0.00000000  0.37588652 1
    0.00000000  0.00000000  0.37234043 1
    0.00000000  0.00000000  0.36879433 1
    0.00000000  0.00000000  0.36524823 1
    0.00000000  0.00000000  0.36170213 1
    0.00000000  0.00000000  0.35815603 1
    0.00000000  0.00000000  0.35460993 1
    0.00000000  0.00000000  0.35106383 1
    0.00000000  0.00000000  0.34751773 1
    0.00000000  0.00000000  0.34397163 1
    0.00000000  0.00000000  0.34042553 1
    0.00000000  0.00000000  0.33687943 1
    0.00000000  0.00000000  0.33333333 1
    0.00000000  0.00000000  0.32978723 1
    0.00000000  0.00000000  0.32624113 1
    0.00000000  0.00000000  0.32269504 1
    0.00000000  0.00000000  0.31914894 1
    0.00000000  0.00000000  0.31560284 1
    0.00000000  0.00000000  0.31205674 1
    0.00000000  0.00000000  0.30851064 1
    0.00000000  0.00000000  0.30496454 1
    0.00000000  0.00000000  0.30141844 1
    0.00000000  0.00000000  0.29787234 1
    0.00000000  0.00000000  0.29432624 1
    0.00000000  0.00000000  0.29078014 1
    0.00000000  0.00000000  0.28723404 1
    0.00000000  0.00000000  0.28368794 1
    0.00000000  0.00000000  0.28014184 1
    0.00000000  0.00000000  0.27659574 1
    0.00000000  0.00000000  0.27304965 1
    0.00000000  0.00000000  0.26950355 1
    0.00000000  0.00000000  0.26595745 1
    0.00000000  0.00000000  0.26241135 1
    0.00000000  0.00000000  0.25886525 1
    0.00000000  0.00000000  0.25531915 1
    0.00000000  0.00000000  0.25177305 1
    0.00000000  0.00000000  0.24822695 1
    0.00000000  0.00000000  0.24468085 1
    0.00000000  0.00000000  0.24113475 1
    0.00000000  0.00000000  0.23758865 1
    0.00000000  0.00000000  0.23404255 1
    0.00000000  0.00000000  0.23049645 1
    0.00000000  0.00000000  0.22695035 1
    0.00000000  0.00000000  0.22340426 1
    0.00000000  0.00000000  0.21985816 1
    0.00000000  0.00000000  0.21631206 1
    0.00000000  0.00000000  0.21276596 1
    0.00000000  0.00000000  0.20921986 1
    0.00000000  0.00000000  0.20567376 1
    0.00000000  0.00000000  0.20212766 1
    0.00000000  0.00000000  0.19858156 1
    0.00000000  0.00000000  0.19503546 1
    0.00000000  0.00000000  0.19148936 1
    0.00000000  0.00000000  0.18794326 1
    0.00000000  0.00000000  0.18439716 1
    0.00000000  0.00000000  0.18085106 1
    0.00000000  0.00000000  0.17730496 1
    0.00000000  0.00000000  0.17375887 1
    0.00000000  0.00000000  0.17021277 1
    0.00000000  0.00000000  0.16666667 1
    0.00000000  0.00000000  0.16312057 1
    0.00000000  0.00000000  0.15957447 1
    0.00000000  0.00000000  0.15602837 1
    0.00000000  0.00000000  0.15248227 1
    0.00000000  0.00000000  0.14893617 1
    0.00000000  0.00000000  0.14539007 1
    0.00000000  0.00000000  0.14184397 1
    0.00000000  0.00000000  0.13829787 1
    0.00000000  0.00000000  0.13475177 1
    0.00000000  0.00000000  0.13120567 1
    0.00000000  0.00000000  0.12765957 1
    0.00000000  0.00000000  0.12411348 1
    0.00000000  0.00000000  0.12056738 1
    0.00000000  0.00000000  0.11702128 1
    0.00000000  0.00000000  0.11347518 1
    0.00000000  0.00000000  0.10992908 1
    0.00000000  0.00000000  0.10638298 1
    0.00000000  0.00000000  0.10283688 1
    0.00000000  0.00000000  0.09929078 1
    0.00000000  0.00000000  0.09574468 1
    0.00000000  0.00000000  0.09219858 1
    0.00000000  0.00000000  0.08865248 1
    0.00000000  0.00000000  0.08510638 1
    0.00000000  0.00000000  0.08156028 1
    0.00000000  0.00000000  0.07801418 1
    0.00000000  0.00000000  0.07446809 1
    0.00000000  0.00000000  0.07092199 1
    0.00000000  0.00000000  0.06737589 1
    0.00000000  0.00000000  0.06382979 1
    0.00000000  0.00000000  0.06028369 1
    0.00000000  0.00000000  0.05673759 1
    0.00000000  0.00000000  0.05319149 1
    0.00000000  0.00000000  0.04964539 1
    0.00000000  0.00000000  0.04609929 1
    0.00000000  0.00000000  0.04255319 1
    0.00000000  0.00000000  0.03900709 1
    0.00000000  0.00000000  0.03546099 1
    0.00000000  0.00000000  0.03191489 1
    0.00000000  0.00000000  0.02836879 1
    0.00000000  0.00000000  0.02482270 1
    0.00000000  0.00000000  0.02127660 1
    0.00000000  0.00000000  0.01773050 1
    0.00000000  0.00000000  0.01418440 1
    0.00000000  0.00000000  0.01063830 1
    0.00000000  0.00000000  0.00709220 1
    0.00000000  0.00000000  0.00354610 1
    0.00000000  0.00000000  0.00000000 1
    0.00144509  0.00144509  0.00144509 1
    0.00289017  0.00289017  0.00289017 1
    0.00433526  0.00433526  0.00433526 1
    0.00578035  0.00578035  0.00578035 1
    0.00722543  0.00722543  0.00722543 1
    0.00867052  0.00867052  0.00867052 1
    0.01011561  0.01011561  0.01011561 1
    0.01156069  0.01156069  0.01156069 1
    0.01300578  0.01300578  0.01300578 1
    0.01445087  0.01445087  0.01445087 1
    0.01589595  0.01589595  0.01589595 1
    0.01734104  0.01734104  0.01734104 1
    0.01878613  0.01878613  0.01878613 1
    0.02023121  0.02023121  0.02023121 1
    0.02167630  0.02167630  0.02167630 1
    0.02312139  0.02312139  0.02312139 1
    0.02456647  0.02456647  0.02456647 1
    0.02601156  0.02601156  0.02601156 1
    0.02745665  0.02745665  0.02745665 1
    0.02890173  0.02890173  0.02890173 1
    0.03034682  0.03034682  0.03034682 1
    0.03179191  0.03179191  0.03179191 1
    0.03323699  0.03323699  0.03323699 1
    0.03468208  0.03468208  0.03468208 1
    0.03612717  0.03612717  0.03612717 1
    0.03757225  0.03757225  0.03757225 1
    0.03901734  0.03901734  0.03901734 1
    0.04046243  0.04046243  0.04046243 1
    0.04190751  0.04190751  0.04190751 1
    0.04335260  0.04335260  0.04335260 1
    0.04479769  0.04479769  0.04479769 1
    0.04624277  0.04624277  0.04624277 1
    0.04768786  0.04768786  0.04768786 1
    0.04913295  0.04913295  0.04913295 1
    0.05057803  0.05057803  0.05057803 1
    0.05202312  0.05202312  0.05202312 1
    0.05346821  0.05346821  0.05346821 1
    0.05491329  0.05491329  0.05491329 1
    0.05635838  0.05635838  0.05635838 1
    0.05780347  0.05780347  0.05780347 1
    0.05924855  0.05924855  0.05924855 1
    0.06069364  0.06069364  0.06069364 1
    0.06213873  0.06213873  0.06213873 1
    0.06358382  0.06358382  0.06358382 1
    0.06502890  0.06502890  0.06502890 1
    0.06647399  0.06647399  0.06647399 1
    0.06791908  0.06791908  0.06791908 1
    0.06936416  0.06936416  0.06936416 1
    0.07080925  0.07080925  0.07080925 1
    0.07225434  0.07225434  0.07225434 1
    0.07369942  0.07369942  0.07369942 1
    0.07514451  0.07514451  0.07514451 1
    0.07658960  0.07658960  0.07658960 1
    0.07803468  0.07803468  0.07803468 1
    0.07947977  0.07947977  0.07947977 1
    0.08092486  0.08092486  0.08092486 1
    0.08236994  0.08236994  0.08236994 1
    0.08381503  0.08381503  0.08381503 1
    0.08526012  0.08526012  0.08526012 1
    0.08670520  0.08670520  0.08670520 1
    0.08815029  0.08815029  0.08815029 1
    0.08959538  0.08959538  0.08959538 1
    0.09104046  0.09104046  0.09104046 1
    0.09248555  0.09248555  0.09248555 1
    0.09393064  0.09393064  0.09393064 1
    0.09537572  0.09537572  0.09537572 1
    0.09682081  0.09682081  0.09682081 1
    0.09826590  0.09826590  0.09826590 1
    0.09971098  0.09971098  0.09971098 1
    0.10115607  0.10115607  0.10115607 1
    0.10260116  0.10260116  0.10260116 1
    0.10404624  0.10404624  0.10404624 1
    0.10549133  0.10549133  0.10549133 1
    0.10693642  0.10693642  0.10693642 1
    0.10838150  0.10838150  0.10838150 1
    0.10982659  0.10982659  0.10982659 1
    0.11127168  0.11127168  0.11127168 1
    0.11271676  0.11271676  0.11271676 1
    0.11416185  0.11416185  0.11416185 1
    0.11560694  0.11560694  0.11560694 1
    0.11705202  0.11705202  0.11705202 1
    0.11849711  0.11849711  0.11849711 1
    0.11994220  0.11994220  0.11994220 1
    0.12138728  0.12138728  0.12138728 1
    0.12283237  0.12283237  0.12283237 1
    0.12427746  0.12427746  0.12427746 1
    0.12572254  0.12572254  0.12572254 1
    0.12716763  0.12716763  0.12716763 1
    0.12861272  0.12861272  0.12861272 1
    0.13005780  0.13005780  0.13005780 1
    0.13150289  0.13150289  0.13150289 1
    0.13294798  0.13294798  0.13294798 1
    0.13439306  0.13439306  0.13439306 1
    0.13583815  0.13583815  0.13583815 1
    0.13728324  0.13728324  0.13728324 1
    0.13872832  0.13872832  0.13872832 1
    0.14017341  0.14017341  0.14017341 1
    0.14161850  0.14161850  0.14161850 1
    0.14306358  0.14306358  0.14306358 1
    0.14450867  0.14450867  0.14450867 1
    0.14595376  0.14595376  0.14595376 1
    0.14739884  0.14739884  0.14739884 1
    0.14884393  0.14884393  0.14884393 1
    0.15028902  0.15028902  0.15028902 1
    0.15173410  0.15173410  0.15173410 1
    0.15317919  0.15317919  0.15317919 1
    0.15462428  0.15462428  0.15462428 1
    0.15606936  0.15606936  0.15606936 1
    0.15751445  0.15751445  0.15751445 1
    0.15895954  0.15895954  0.15895954 1
    0.16040462  0.16040462  0.16040462 1
    0.16184971  0.16184971  0.16184971 1
    0.16329480  0.16329480  0.16329480 1
    0.16473988  0.16473988  0.16473988 1
    0.16618497  0.16618497  0.16618497 1
    0.16763006  0.16763006  0.16763006 1
    0.16907514  0.16907514  0.16907514 1
    0.17052023  0.17052023  0.17052023 1
    0.17196532  0.17196532  0.17196532 1
    0.17341040  0.17341040  0.17341040 1
    0.17485549  0.17485549  0.17485549 1
    0.17630058  0.17630058  0.17630058 1
    0.17774566  0.17774566  0.17774566 1
    0.17919075  0.17919075  0.17919075 1
    0.18063584  0.18063584  0.18063584 1
    0.18208092  0.18208092  0.18208092 1
    0.18352601  0.18352601  0.18352601 1
    0.18497110  0.18497110  0.18497110 1
    0.18641618  0.18641618  0.18641618 1
    0.18786127  0.18786127  0.18786127 1
    0.18930636  0.18930636  0.18930636 1
    0.19075145  0.19075145  0.19075145 1
    0.19219653  0.19219653  0.19219653 1
    0.19364162  0.19364162  0.19364162 1
    0.19508671  0.19508671  0.19508671 1
    0.19653179  0.19653179  0.19653179 1
    0.19797688  0.19797688  0.19797688 1
    0.19942197  0.19942197  0.19942197 1
    0.20086705  0.20086705  0.20086705 1
    0.20231214  0.20231214  0.20231214 1
    0.20375723  0.20375723  0.20375723 1
    0.20520231  0.20520231  0.20520231 1
    0.20664740  0.20664740  0.20664740 1
    0.20809249  0.20809249  0.20809249 1
    0.20953757  0.20953757  0.20953757 1
    0.21098266  0.21098266  0.21098266 1
    0.21242775  0.21242775  0.21242775 1
    0.21387283  0.21387283  0.21387283 1
    0.21531792  0.21531792  0.21531792 1
    0.21676301  0.21676301  0.21676301 1
    0.21820809  0.21820809  0.21820809 1
    0.21965318  0.21965318  0.21965318 1
    0.22109827  0.22109827  0.22109827 1
    0.22254335  0.22254335  0.22254335 1
    0.22398844  0.22398844  0.22398844 1
    0.22543353  0.22543353  0.22543353 1
    0.22687861  0.22687861  0.22687861 1
    0.22832370  0.22832370  0.22832370 1
    0.22976879  0.22976879  0.22976879 1
    0.23121387  0.23121387  0.23121387 1
    0.23265896  0.23265896  0.23265896 1
    0.23410405  0.23410405  0.23410405 1
    0.23554913  0.23554913  0.23554913 1
    0.23699422  0.23699422  0.23699422 1
    0.23843931  0.23843931  0.23843931 1
    0.23988439  0.23988439  0.23988439 1
    0.24132948  0.24132948  0.24132948 1
    0.24277457  0.24277457  0.24277457 1
    0.24421965  0.24421965  0.24421965 1
    0.24566474  0.24566474  0.24566474 1
    0.24710983  0.24710983  0.24710983 1
    0.24855491  0.24855491  0.24855491 1
    0.25000000  0.25000000  0.25000000 1
    0.25144509  0.24566474  0.25144509 1
    0.25289017  0.24132948  0.25289017 1
    0.25433526  0.23699422  0.25433526 1
    0.25578035  0.23265896  0.25578035 1
    0.25722543  0.22832370  0.25722543 1
    0.25867052  0.22398844  0.25867052 1
    0.26011561  0.21965318  0.26011561 1
    0.26156069  0.21531792  0.26156069 1
    0.26300578  0.21098266  0.26300578 1
    0.26445087  0.20664740  0.26445087 1
    0.26589595  0.20231214  0.26589595 1
    0.26734104  0.19797688  0.26734104 1
    0.26878613  0.19364162  0.26878613 1
    0.27023121  0.18930636  0.27023121 1
    0.27167630  0.18497110  0.27167630 1
    0.27312139  0.18063584  0.27312139 1
    0.27456647  0.17630058  0.27456647 1
    0.27601156  0.17196532  0.27601156 1
    0.27745665  0.16763006  0.27745665 1
    0.27890173  0.16329480  0.27890173 1
    0.28034682  0.15895954  0.28034682 1
    0.28179191  0.15462428  0.28179191 1
    0.28323699  0.15028902  0.28323699 1
    0.28468208  0.14595376  0.28468208 1
    0.28612717  0.14161850  0.28612717 1
    0.28757225  0.13728324  0.28757225 1
    0.28901734  0.13294798  0.28901734 1
    0.29046243  0.12861272  0.29046243 1
    0.29190751  0.12427746  0.29190751 1
    0.29335260  0.11994220  0.29335260 1
    0.29479769  0.11560694  0.29479769 1
    0.29624277  0.11127168  0.29624277 1
    0.29768786  0.10693642  0.29768786 1
    0.29913295  0.10260116  0.29913295 1
    0.30057803  0.09826590  0.30057803 1
    0.30202312  0.09393064  0.30202312 1
    0.30346821  0.08959538  0.30346821 1
    0.30491329  0.08526012  0.30491329 1
    0.30635838  0.08092486  0.30635838 1
    0.30780347  0.07658960  0.30780347 1
    0.30924855  0.07225434  0.30924855 1
    0.31069364  0.06791908  0.31069364 1
    0.31213873  0.06358382  0.31213873 1
    0.31358382  0.05924855  0.31358382 1
    0.31502890  0.05491329  0.31502890 1
    0.31647399  0.05057803  0.31647399 1
    0.31791908  0.04624277  0.31791908 1
    0.31936416  0.04190751  0.31936416 1
    0.32080925  0.03757225  0.32080925 1