&CONTROL
  calculation = 'bands',
  prefix = 'nbti',
  pseudo_dir = '../../pseudo/',
  verbosity = 'low',
/
&SYSTEM
  degauss = 0.015,
  ecutrho = 340.0,
  ecutwfc = 85.0,
  ibrav = 0,
  nbnd = 40,
  nosym = .FALSE.,
  occupations = 'smearing',
  smearing = 'gauss',
  nat = 2,
  ntyp = 2,
/
&ELECTRONS
  conv_thr = 1d-10,
  diagonalization = 'davidson',
  electron_maxstep = 40,
  mixing_beta = 0.7,
/
&IONS
/
&CELL
/
ATOMIC_SPECIES
  Nb  92.9064 Nb.upf
  Ti  47.8670 Ti.upf
ATOMIC_POSITIONS crystal
  Ti 0.500000000000 0.500000000000 0.500000000000
  Nb 0.000000000000 0.000000000000 0.000000000000
CELL_PARAMETERS angstrom
      3.0938099610      0.0000000000      0.0000000000
      0.0000000000      3.0938099610      0.0000000000
      0.0000000000      0.0000000000      3.0938099610
K_POINTS crystal
670
    0.00000000  0.00000000  0.00000000 1
    0.00000000  0.00490196  0.00000000 1
    0.00000000  0.00980392  0.00000000 1
    0.00000000  0.01470588  0.00000000 1
    0.00000000  0.01960784  0.00000000 1
    0.00000000  0.02450980  0.00000000 1
    0.00000000  0.02941176  0.00000000 1
    0.00000000  0.03431373  0.00000000 1
    0.00000000  0.03921569  0.00000000 1
    0.00000000  0.04411765  0.00000000 1
    0.00000000  0.04901961  0.00000000 1
    0.00000000  0.05392157  0.00000000 1
    0.00000000  0.05882353  0.00000000 1
    0.00000000  0.06372549  0.00000000 1
    0.00000000  0.06862745  0.00000000 1
    0.00000000  0.07352941  0.00000000 1
    0.00000000  0.07843137  0.00000000 1
    0.00000000  0.08333333  0.00000000 1
    0.00000000  0.08823529  0.00000000 1
    0.00000000  0.09313725  0.00000000 1
    0.00000000  0.09803922  0.00000000 1
    0.00000000  0.10294118  0.00000000 1
    0.00000000  0.10784314  0.00000000 1
    0.00000000  0.11274510  0.00000000 1
    0.00000000  0.11764706  0.00000000 1
    0.00000000  0.12254902  0.00000000 1
    0.00000000  0.12745098  0.00000000 1
    0.00000000  0.13235294  0.00000000 1
    0.00000000  0.13725490  0.00000000 1
    0.00000000  0.14215686  0.00000000 1
    0.00000000  0.14705882  0.00000000 1
    0.00000000  0.15196078  0.00000000 1
    0.00000000  0.15686275  0.00000000 1
    0.00000000  0.16176471  0.00000000 1
    0.00000000  0.16666667  0.00000000 1
    0.00000000  0.17156863  0.00000000 1
    0.00000000  0.17647059  0.00000000 1
    0.00000000  0.18137255  0.00000000 1
    0.00000000  0.18627451  0.00000000 1
    0.00000000  0.19117647  0.00000000 1
    0.00000000  0.19607843  0.00000000 1
    0.00000000  0.20098039  0.00000000 1
    0.00000000  0.20588235  0.00000000 1
    0.00000000  0.21078431  0.00000000 1
    0.00000000  0.21568627  0.00000000 1
    0.00000000  0.22058824  0.00000000 1
    0.00000000  0.22549020  0.00000000 1
    0.00000000  0.23039216  0.00000000 1
    0.00000000  0.23529412  0.00000000 1
    0.00000000  0.24019608  0.00000000 1
    0.00000000  0.24509804  0.00000000 1
    0.00000000  0.25000000  0.00000000 1
    0.00000000  0.25490196  0.00000000 1
    0.00000000  0.25980392  0.00000000 1
    0.00000000  0.26470588  0.00000000 1
    0.00000000  0.26960784  0.00000000 1
    0.00000000  0.27450980  0.00000000 1
    0.00000000  0.27941176  0.00000000 1
    0.00000000  0.28431373  0.00000000 1
    0.00000000  0.28921569  0.00000000 1
    0.00000000  0.29411765  0.00000000 1
    0.00000000  0.29901961  0.00000000 1
    0.00000000  0.30392157  0.00000000 1
    0.00000000  0.30882353  0.00000000 1
    0.00000000  0.31372549  0.00000000 1
    0.00000000  0.31862745  0.00000000 1
    0.00000000  0.32352941  0.00000000 1
    0.00000000  0.32843137  0.00000000 1
    0.00000000  0.33333333  0.00000000 1
    0.00000000  0.33823529  0.00000000 1
    0.00000000  0.34313725  0.00000000 1
    0.00000000  0.34803922  0.00000000 1
    0.00000000  0.35294118  0.00000000 1
    0.00000000  0.35784314  0.00000000 1
    0.00000000  0.36274510  0.00000000 1
    0.00000000  0.36764706  0.00000000 1
    0.00000000  0.37254902  0.00000000 1
    0.00000000  0.37745098  0.00000000 1
    0.00000000  0.38235294  0.00000000 1
    0.00000000  0.38725490  0.00000000 1
    0.00000000  0.39215686  0.00000000 1
    0.00000000  0.39705882  0.00000000 1
    0.00000000  0.40196078  0.00000000 1
    0.00000000  0.40686275  0.00000000 1
    0.00000000  0.41176471  0.00000000 1
    0.00000000  0.41666667  0.00000000 1
    0.00000000  0.42156863  0.00000000 1
    0.00000000  0.42647059  0.00000000 1
    0.00000000  0.43137255  0.00000000 1
    0.00000000  0.43627451  0.00000000 1
    0.00000000  0.44117647  0.00000000 1
    0.00000000  0.44607843  0.00000000 1
    0.00000000  0.45098039  0.00000000 1
    0.00000000  0.45588235  0.00000000 1
    0.00000000  0.46078431  0.00000000 1
    0.00000000  0.46568627  0.00000000 1
    0.00000000  0.47058824  0.00000000 1
    0.00000000  0.47549020  0.00000000 1
    0.00000000  0.48039216  0.00000000 1
    0.00000000  0.48529412  0.00000000 1
    0.00000000  0.49019608  0.00000000 1
    0.00000000  0.49509804  0.00000000 1
    0.00000000  0.50000000  0.00000000 1
    0.00490196  0.50000000  0.00000000 1
    0.00980392  0.50000000  0.00000000 1
    0.01470588  0.50000000  0.00000000 1
    0.01960784  0.50000000  0.00000000 1
    0.02450980  0.50000000  0.00000000 1
    0.02941176  0.50000000  0.00000000 1
    0.03431373  0.50000000  0.00000000 1
    0.03921569  0.50000000  0.00000000 1
    0.04411765  0.50000000  0.00000000 1
    0.04901961  0.50000000  0.00000000 1
    0.05392157  0.50000000  0.00000000 1
    0.05882353  0.50000000  0.00000000 1
    0.06372549  0.50000000  0.00000000 1
    0.06862745  0.50000000  0.00000000 1
    0.07352941  0.50000000  0.00000000 1
    0.07843137  0.50000000  0.00000000 1
    0.08333333  0.50000000  0.00000000 1
    0.08823529  0.50000000  0.00000000 1
    0.09313725  0.50000000  0.00000000 1
    0.09803922  0.50000000  0.00000000 1
    0.10294118  0.50000000  0.00000000 1
    0.10784314  0.50000000  0.00000000 1
    0.11274510  0.50000000  0.00000000 1
    0.11764706  0.50000000  0.00000000 1
    0.12254902  0.50000000  0.00000000 1
    0.12745098  0.50000000  0.00000000 1
    0.13235294  0.50000000  0.00000000 1
    0.13725490  0.50000000  0.00000000 1
    0.14215686  0.50000000  0.00000000 1
    0.14705882  0.50000000  0.00000000 1
    0.15196078  0.50000000  0.00000000 1
    0.15686275  0.50000000  0.00000000 1
    0.16176471  0.50000000  0.00000000 1
    0.16666667  0.50000000  0.00000000 1
    0.17156863  0.50000000  0.00000000 1
    0.17647059  0.50000000  0.00000000 1
    0.18137255  0.50000000  0.00000000 1
    0.18627451  0.50000000  0.00000000 1
    0.19117647  0.50000000  0.00000000 1
    0.19607843  0.50000000  0.00000000 1
    0.20098039  0.50000000  0.00000000 1
    0.20588235  0.50000000  0.00000000 1
    0.21078431  0.50000000  0.00000000 1
    0.21568627  0.50000000  0.00000000 1
    0.22058824  0.50000000  0.00000000 1
    0.22549020  0.50000000  0.00000000 1
    0.23039216  0.50000000  0.00000000 1
    0.23529412  0.50000000  0.00000000 1
    0.24019608  0.50000000  0.00000000 1
    0.24509804  0.50000000  0.00000000 1
    0.25000000  0.50000000  0.00000000 1
    0.25490196  0.50000000  0.00000000 1
    0.25980392  0.50000000  0.00000000 1
    0.26470588  0.50000000  0.00000000 1
    0.26960784  0.50000000  0.00000000 1
    0.27450980  0.50000000  0.00000000 1
    0.27941176  0.50000000  0.00000000 1
    0.28431373  0.50000000  0.00000000 1
    0.28921569  0.50000000  0.00000000 1
    0.29411765  0.50000000  0.00000000 1
    0.29901961  0.50000000  0.00000000 1
    0.30392157  0.50000000  0.00000000 1
    0.30882353  0.50000000  0.00000000 1
    0.31372549  0.50000000  0.00000000 1
    0.31862745  0.50000000  0.00000000 1
    0.32352941  0.50000000  0.00000000 1
    0.32843137  0.50000000  0.00000000 1
    0.33333333  0.50000000  0.00000000 1
    0.33823529  0.50000000  0.00000000 1
    0.34313725  0.50000000  0.00000000 1
    0.34803922  0.50000000  0.00000000 1
    0.35294118  0.50000000  0.00000000 1
    0.35784314  0.50000000  0.00000000 1
    0.36274510  0.50000000  0.00000000 1
    0.36764706  0.50000000  0.00000000 1
    0.37254902  0.50000000  0.00000000 1
    0.37745098  0.50000000  0.00000000 1
    0.38235294  0.50000000  0.00000000 1
    0.38725490  0.50000000  0.00000000 1
    0.39215686  0.50000000  0.00000000 1
    0.39705882  0.50000000  0.00000000 1
    0.40196078  0.50000000  0.00000000 1
    0.40686275  0.50000000  0.00000000 1
    0.41176471  0.50000000  0.00000000 1
    0.41666667  0.50000000  0.00000000 1
    0.42156863  0.50000000  0.00000000 1
    0.42647059  0.50000000  0.00000000 1
    0.43137255  0.50000000  0.00000000 1
    0.43627451  0.50000000  0.00000000 1
    0.44117647  0.50000000  0.00000000 1
    0.44607843  0.50000000  0.00000000 1
    0.45098039  0.50000000  0.00000000 1
    0.45588235  0.50000000  0.00000000 1
    0.46078431  0.50000000  0.00000000 1
    0.46568627  0.50000000  0.00000000 1
    0.47058824  0.50000000  0.00000000 1
    0.47549020  0.50000000  0.00000000 1
    0.48039216  0.50000000  0.00000000 1
    0.48529412  0.50000000  0.00000000 1
    0.49019608  0.50000000  0.00000000 1
    0.49509804  0.50000000  0.00000000 1
    0.50000000  0.50000000  0.00000000 1
    0.49652778  0.49652778  0.00000000 1
    0.49305556  0.49305556  0.00000000 1
    0.48958333  0.48958333  0.00000000 1
    0.48611111  0.48611111  0.00000000 1
    0.48263889  0.48263889  0.00000000 1
    0.47916667  0.47916667  0.00000000 1
    0.47569444  0.47569444  0.00000000 1
    0.47222222  0.47222222  0.00000000 1
    0.46875000  0.46875000  0.00000000 1
    0.46527778  0.46527778  0.00000000 1
    0.46180556  0.46180556  0.00000000 1
    0.45833333  0.45833333  0.00000000 1
    0.45486111  0.45486111  0.00000000 1
    0.45138889  0.45138889  0.00000000 1
    0.44791667  0.44791667  0.00000000 1
    0.44444444  0.44444444  0.00000000 1
    0.44097222  0.44097222  0.00000000 1
    0.43750000  0.43750000  0.00000000 1
    0.43402778  0.43402778  0.00000000 1
    0.43055556  0.43055556  0.00000000 1
    0.42708333  0.42708333  0.00000000 1
    0.42361111  0.42361111  0.00000000 1
    0.42013889  0.42013889  0.00000000 1
    0.41666667  0.41666667  0.00000000 1
    0.41319444  0.41319444  0.00000000 1
    0.40972222  0.40972222  0.00000000 1
    0.40625000  0.40625000  0.00000000 1
    0.40277778  0.40277778  0.00000000 1
    0.39930556  0.39930556  0.00000000 1
    0.39583333  0.39583333  0.00000000 1
    0.39236111  0.39236111  0.00000000 1
    0.38888889  0.38888889  0.00000000 1
    0.38541667  0.38541667  0.00000000 1
    0.38194444  0.38194444  0.00000000 1
    0.37847222  0.37847222  0.00000000 1
    0.37500000  0.37500000  0.00000000 1
    0.37152778  0.37152778  0.00000000 1
    0.36805556  0.36805556  0.00000000 1
    0.36458333  0.36458333  0.00000000 1
    0.36111111  0.36111111  0.00000000 1
    0.35763889  0.35763889  0.00000000 1
    0.35416667  0.35416667  0.00000000 1
    0.35069444  0.35069444  0.00000000 1
    0.34722222  0.34722222  0.00000000 1
    0.34375000  0.34375000  0.00000000 1
    0.34027778  0.34027778  0.00000000 1
    0.33680556  0.33680556  0.00000000 1
    0.33333333  0.33333333  0.00000000 1
    0.32986111  0.32986111  0.00000000 1
    0.32638889  0.32638889  0.00000000 1
    0.32291667  0.32291667  0.00000000 1
    0.31944444  0.31944444  0.00000000 1
    0.31597222  0.31597222  0.00000000 1
    0.31250000  0.31250000  0.00000000 1
    0.30902778  0.30902778  0.00000000 1
    0.30555556  0.30555556  0.00000000 1
    0.30208333  0.30208333  0.00000000 1
    0.29861111  0.29861111  0.00000000 1
    0.29513889  0.29513889  0.00000000 1
    0.29166667  0.29166667  0.00000000 1
    0.28819444  0.28819444  0.00000000 1
    0.28472222  0.28472222  0.00000000 1
    0.28125000  0.28125000  0.00000000 1
    0.27777778  0.27777778  0.00000000 1
    0.27430556  0.27430556  0.00000000 1
    0.27083333  0.27083333  0.00000000 1
    0.26736111  0.26736111  0.00000000 1
    0.26388889  0.26388889  0.00000000 1
    0.26041667  0.26041667  0.00000000 1
    0.25694444  0.25694444  0.00000000 1
    0.25347222  0.25347222  0.00000000 1
    0.25000000  0.25000000  0.00000000 1
    0.24652778  0.24652778  0.00000000 1
    0.24305556  0.24305556  0.00000000 1
    0.23958333  0.23958333  0.00000000 1
    0.23611111  0.23611111  0.00000000 1
    0.23263889  0.23263889  0.00000000 1
    0.22916667  0.22916667  0.00000000 1
    0.22569444  0.22569444  0.00000000 1
    0.22222222  0.22222222  0.00000000 1
    0.21875000  0.21875000  0.00000000 1
    0.21527778  0.21527778  0.00000000 1
    0.21180556  0.21180556  0.00000000 1
    0.20833333  0.20833333  0.00000000 1
    0.20486111  0.20486111  0.00000000 1
    0.20138889  0.20138889  0.00000000 1
    0.19791667  0.19791667  0.00000000 1
    0.19444444  0.19444444  0.00000000 1
    0.19097222  0.19097222  0.00000000 1
    0.18750000  0.18750000  0.00000000 1
    0.18402778  0.18402778  0.00000000 1
    0.18055556  0.18055556  0.00000000 1
    0.17708333  0.17708333  0.00000000 1
    0.17361111  0.17361111  0.00000000 1
    0.17013889  0.17013889  0.00000000 1
    0.16666667  0.16666667  0.00000000 1
    0.16319444  0.16319444  0.00000000 1
    0.15972222  0.15972222  0.00000000 1
    0.15625000  0.15625000  0.00000000 1
    0.15277778  0.15277778  0.00000000 1
    0.14930556  0.14930556  0.00000000 1
    0.14583333  0.14583333  0.00000000 1
    0.14236111  0.14236111  0.00000000 1
    0.13888889  0.13888889  0.00000000 1
    0.13541667  0.13541667  0.00000000 1
    0.13194444  0.13194444  0.00000000 1
    0.12847222  0.12847222  0.00000000 1
    0.12500000  0.12500000  0.00000000 1
    0.12152778  0.12152778  0.00000000 1
    0.11805556  0.11805556  0.00000000 1
    0.11458333  0.11458333  0.00000000 1
    0.11111111  0.11111111  0.00000000 1
    0.10763889  0.10763889  0.00000000 1
    0.10416667  0.10416667  0.00000000 1
    0.10069444  0.10069444  0.00000000 1
    0.09722222  0.09722222  0.00000000 1
    0.09375000  0.09375000  0.00000000 1
    0.09027778  0.09027778  0.00000000 1
    0.08680556  0.08680556  0.00000000 1
    0.08333333  0.08333333  0.00000000 1
    0.07986111  0.07986111  0.00000000 1
    0.07638889  0.07638889  0.00000000 1
    0.07291667  0.07291667  0.00000000 1
    0.06944444  0.06944444  0.00000000 1
    0.06597222  0.06597222  0.00000000 1
    0.06250000  0.06250000  0.00000000 1
    0.05902778  0.05902778  0.00000000 1
    0.05555556  0.05555556  0.00000000 1
    0.05208333  0.05208333  0.00000000 1
    0.04861111  0.04861111  0.00000000 1
    0.04513889  0.04513889  0.00000000 1
    0.04166667  0.04166667  0.00000000 1
    0.03819444  0.03819444  0.00000000 1
    0.03472222  0.03472222  0.00000000 1
    0.03125000  0.03125000  0.00000000 1
    0.02777778  0.02777778  0.00000000 1
    0.02430556  0.02430556  0.00000000 1
    0.02083333  0.02083333  0.00000000 1
    0.01736111  0.01736111  0.00000000 1
    0.01388889  0.01388889  0.00000000 1
    0.01041667  0.01041667  0.00000000 1
    0.00694444  0.00694444  0.00000000 1
    0.00347222  0.00347222  0.00000000 1
    0.00000000  0.00000000  0.00000000 1
    0.00282486  0.00282486  0.00282486 1
    0.00564972  0.00564972  0.00564972 1
    0.00847458  0.00847458  0.00847458 1
    0.01129944  0.01129944  0.01129944 1
    0.01412429  0.01412429  0.01412429 1
    0.01694915  0.01694915  0.01694915 1
    0.01977401  0.01977401  0.01977401 1
    0.02259887  0.02259887  0.02259887 1
    0.02542373  0.02542373  0.02542373 1
    0.02824859  0.02824859  0.02824859 1
    0.03107345  0.03107345  0.03107345 1
    0.03389831  0.03389831  0.03389831 1
    0.03672316  0.03672316  0.03672316 1
    0.03954802  0.03954802  0.03954802 1
    0.04237288  0.04237288  0.04237288 1
    0.04519774  0.04519774  0.04519774 1
    0.04802260  0.04802260  0.04802260 1
    0.05084746  0.05084746  0.05084746 1
    0.05367232  0.05367232  0.05367232 1
    0.05649718  0.05649718  0.05649718 1
    0.05932203  0.05932203  0.05932203 1
    0.06214689  0.06214689  0.06214689 1
    0.06497175  0.06497175  0.06497175 1
    0.06779661  0.06779661  0.06779661 1
    0.07062147  0.07062147  0.07062147 1
    0.07344633  0.07344633  0.07344633 1
    0.07627119  0.07627119  0.07627119 1
    0.07909605  0.07909605  0.07909605 1
    0.08192090  0.08192090  0.08192090 1
    0.08474576  0.08474576  0.08474576 1
    0.08757062  0.08757062  0.08757062 1
    0.09039548  0.09039548  0.09039548 1
    0.09322034  0.09322034  0.09322034 1
    0.09604520  0.09604520  0.09604520 1
    0.09887006  0.09887006  0.09887006 1
    0.10169492  0.10169492  0.10169492 1
    0.10451977  0.10451977  0.10451977 1
    0.10734463  0.10734463  0.10734463 1
    0.11016949  0.11016949  0.11016949 1
    0.11299435  0.11299435  0.11299435 1
    0.11581921  0.11581921  0.11581921 1
    0.11864407  0.11864407  0.11864407 1
    0.12146893  0.12146893  0.12146893 1
    0.12429379  0.12429379  0.12429379 1
    0.12711864  0.12711864  0.12711864 1
    0.12994350  0.12994350  0.12994350 1
    0.13276836  0.13276836  0.13276836 1
    0.13559322  0.13559322  0.13559322 1
    0.13841808  0.13841808  0.13841808 1
    0.14124294  0.14124294  0.14124294 1
    0.14406780  0.14406780  0.14406780 1
    0.14689266  0.14689266  0.14689266 1
    0.14971751  0.14971751  0.14971751 1
    0.15254237  0.15254237  0.15254237 1
    0.15536723  0.15536723  0.15536723 1
    0.15819209  0.15819209  0.15819209 1
    0.16101695  0.16101695  0.16101695 1
    0.16384181  0.16384181  0.16384181 1
    0.16666667  0.16666667  0.16666667 1
    0.16949153  0.16949153  0.16949153 1
    0.17231638  0.17231638  0.17231638 1
    0.17514124  0.17514124  0.17514124 1
    0.17796610  0.17796610  0.17796610 1
    0.18079096  0.18079096  0.18079096 1
    0.18361582  0.18361582  0.18361582 1
    0.18644068  0.18644068  0.18644068 1
    0.18926554  0.18926554  0.18926554 1
    0.19209040  0.19209040  0.19209040 1
    0.19491525  0.19491525  0.19491525 1
    0.19774011  0.19774011  0.19774011 1
    0.20056497  0.20056497  0.20056497 1
    0.20338983  0.20338983  0.20338983 1
    0.20621469  0.20621469  0.20621469 1
    0.20903955  0.20903955  0.20903955 1
    0.21186441  0.21186441  0.21186441 1
    0.21468927  0.21468927  0.21468927 1
    0.21751412  0.21751412  0.21751412 1
    0.22033898  0.22033898  0.22033898 1
    0.22316384  0.22316384  0.22316384 1
    0.22598870  0.22598870  0.22598870 1
    0.22881356  0.22881356  0.22881356 1
    0.23163842  0.23163842  0.23163842 1
    0.23446328  0.23446328  0.23446328 1
    0.23728814  0.23728814  0.23728814 1
    0.24011299  0.24011299  0.24011299 1
    0.24293785  0.24293785  0.24293785 1
    0.24576271  0.24576271  0.24576271 1
    0.24858757  0.24858757  0.24858757 1
    0.25141243  0.25141243  0.25141243 1
    0.25423729  0.25423729  0.25423729 1
    0.25706215  0.25706215  0.25706215 1
    0.25988701  0.25988701  0.25988701 1
    0.26271186  0.26271186  0.26271186 1
    0.26553672  0.26553672  0.26553672 1
    0.26836158  0.26836158  0.26836158 1
    0.27118644  0.27118644  0.27118644 1
    0.27401130  0.27401130  0.27401130 1
    0.27683616  0.27683616  0.27683616 1
    0.27966102  0.27966102  0.27966102 1
    0.28248588  0.28248588  0.28248588 1
    0.28531073  0.28531073  0.28531073 1
    0.28813559  0.28813559  0.28813559 1
    0.29096045  0.29096045  0.29096045 1
    0.29378531  0.29378531  0.29378531 1
    0.29661017  0.29661017  0.29661017 1
    0.29943503  0.29943503  0.29943503 1
    0.30225989  0.30225989  0.30225989 1
    0.30508475  0.30508475  0.30508475 1
    0.30790960  0.30790960  0.30790960 1
    0.31073446  0.31073446  0.31073446 1
    0.31355932  0.31355932  0.31355932 1
    0.31638418  0.31638418  0.31638418 1
    0.31920904  0.31920904  0.31920904 1
    0.32203390  0.32203390  0.32203390 1
    0.32485876  0.32485876  0.32485876 1
    0.32768362  0.32768362  0.32768362 1
    0.33050847  0.33050847  0.33050847 1
    0.33333333  0.33333333  0.33333333 1
    0.33615819  0.33615819  0.33615819 1
    0.33898305  0.33898305  0.33898305 1
    0.34180791  0.34180791  0.34180791 1
    0.34463277  0.34463277  0.34463277 1
    0.34745763  0.34745763  0.34745763 1
    0.35028249  0.35028249  0.35028249 1
    0.35310734  0.35310734  0.35310734 1
    0.35593220  0.35593220  0.35593220 1
    0.35875706  0.35875706  0.35875706 1
    0.36158192  0.36158192  0.36158192 1
    0.36440678  0.36440678  0.36440678 1
    0.36723164  0.36723164  0.36723164 1
    0.37005650  0.37005650  0.37005650 1
    0.37288136  0.37288136  0.37288136 1
    0.37570621  0.37570621  0.37570621 1
    0.37853107  0.37853107  0.37853107 1
    0.38135593  0.38135593  0.38135593 1
    0.38418079  0.38418079  0.38418079 1
    0.38700565  0.38700565  0.38700565 1
    0.38983051  0.38983051  0.38983051 1
    0.39265537  0.39265537  0.39265537 1
    0.39548023  0.39548023  0.39548023 1
    0.39830508  0.39830508  0.39830508 1
    0.40112994  0.40112994  0.40112994 1
    0.40395480  0.40395480  0.40395480 1
    0.40677966  0.40677966  0.40677966 1
    0.40960452  0.40960452  0.40960452 1
    0.41242938  0.41242938  0.41242938 1
    0.41525424  0.41525424  0.41525424 1
    0.41807910  0.41807910  0.41807910 1
    0.42090395  0.42090395  0.42090395 1
    0.42372881  0.42372881  0.42372881 1
    0.42655367  0.42655367  0.42655367 1
    0.42937853  0.42937853  0.42937853 1
    0.43220339  0.43220339  0.43220339 1
    0.43502825  0.43502825  0.43502825 1
    0.43785311  0.43785311  0.43785311 1
    0.44067797  0.44067797  0.44067797 1
    0.44350282  0.44350282  0.44350282 1
    0.44632768  0.44632768  0.44632768 1
    0.44915254  0.44915254  0.44915254 1
    0.45197740  0.45197740  0.45197740 1
    0.45480226  0.45480226  0.45480226 1
    0.45762712  0.45762712  0.45762712 1
    0.46045198  0.46045198  0.46045198 1
    0.46327684  0.46327684  0.46327684 1
    0.46610169  0.46610169  0.46610169 1
    0.46892655  0.46892655  0.46892655 1
    0.47175141  0.47175141  0.47175141 1
    0.47457627  0.47457627  0.47457627 1
    0.47740113  0.47740113  0.47740113 1
    0.48022599  0.48022599  0.48022599 1
    0.48305085  0.48305085  0.48305085 1
    0.48587571  0.48587571  0.48587571 1
    0.48870056  0.48870056  0.48870056 1
    0.49152542  0.49152542  0.49152542 1
    0.49435028  0.49435028  0.49435028 1
    0.49717514  0.49717514  0.49717514 1
    0.50000000  0.50000000  0.50000000 1
    0.49652778  0.50000000  0.49652778 1
    0.49305556  0.50000000  0.49305556 1
    0.48958333  0.50000000  0.48958333 1
    0.48611111  0.50000000  0.48611111 1
    0.48263889  0.50000000  0.48263889 1
    0.47916667  0.50000000  0.47916667 1
    0.47569444  0.50000000  0.47569444 1
    0.47222222  0.50000000  0.47222222 1
    0.46875000  0.50000000  0.46875000 1
    0.46527778  0.50000000  0.46527778 1
    0.46180556  0.50000000  0.46180556 1
    0.45833333  0.50000000  0.45833333 1
    0.45486111  0.50000000  0.45486111 1
    0.45138889  0.50000000  0.45138889 1
    0.44791667  0.50000000  0.44791667 1
    0.44444444  0.50000000  0.44444444 1
    0.44097222  0.50000000  0.44097222 1
    0.43750000  0.50000000  0.43750000 1
    0.43402778  0.50000000  0.43402778 1
    0.43055556  0.50000000  0.43055556 1
    0.42708333  0.50000000  0.42708333 1
    0.42361111  0.50000000  0.42361111 1
    0.42013889  0.50000000  0.42013889 1
    0.41666667  0.50000000  0.41666667 1
    0.41319444  0.50000000  0.41319444 1
    0.40972222  0.50000000  0.40972222 1
    0.40625000  0.50000000  0.40625000 1
    0.40277778  0.50000000  0.40277778 1
    0.39930556  0.50000000  0.39930556 1
    0.39583333  0.50000000  0.39583333 1
    0.39236111  0.50000000  0.39236111 1
    0.38888889  0.50000000  0.38888889 1
    0.38541667  0.50000000  0.38541667 1
    0.38194444  0.50000000  0.38194444 1
    0.37847222  0.50000000  0.37847222 1
    0.37500000  0.50000000  0.37500000 1
    0.37152778  0.50000000  0.37152778 1
    0.36805556  0.50000000  0.36805556 1
    0.36458333  0.50000000  0.36458333 1
    0.36111111  0.50000000  0.36111111 1
    0.35763889  0.50000000  0.35763889 1
    0.35416667  0.50000000  0.35416667 1
    0.35069444  0.50000000  0.35069444 1
    0.34722222  0.50000000  0.34722222 1
    0.34375000  0.50000000  0.34375000 1
    0.34027778  0.50000000  0.34027778 1
    0.33680556  0.50000000  0.33680556 1
    0.33333333  0.50000000  0.33333333 1
    0.32986111  0.50000000  0.32986111 1
    0.32638889  0.50000000  0.32638889 1
    0.32291667  0.50000000  0.32291667 1
    0.31944444  0.50000000  0.31944444 1
    0.31597222  0.50000000  0.31597222 1
    0.31250000  0.50000000  0.31250000 1
    0.30902778  0.50000000  0.30902778 1
    0.30555556  0.50000000  0.30555556 1
    0.30208333  0.50000000  0.30208333 1
    0.29861111  0.50000000  0.29861111 1
    0.29513889  0.50000000  0.29513889 1
    0.29166667  0.50000000  0.29166667 1
    0.28819444  0.50000000  0.28819444 1
    0.28472222  0.50000000  0.28472222 1
    0.28125000  0.50000000  0.28125000 1
    0.27777778  0.50000000  0.27777778 1
    0.27430556  0.50000000  0.27430556 1
    0.27083333  0.50000000  0.27083333 1
    0.26736111  0.50000000  0.26736111 1
    0.26388889  0.50000000  0.26388889 1
    0.26041667  0.50000000  0.26041667 1
    0.25694444  0.50000000  0.25694444 1
    0.25347222  0.50000000  0.25347222 1
    0.25000000  0.50000000  0.25000000 1
    0.24652778  0.50000000  0.24652778 1
    0.24305556  0.50000000  0.24305556 1
    0.23958333  0.50000000  0.23958333 1
    0.23611111  0.50000000  0.23611111 1
    0.23263889  0.50000000  0.23263889 1
    0.22916667  0.50000000  0.22916667 1
    0.22569444  0.50000000  0.22569444 1
    0.22222222  0.50000000  0.22222222 1
    0.21875000  0.50000000  0.21875000 1
    0.21527778  0.50000000  0.21527778 1
    0.21180556  0.50000000  0.21180556 1
    0.20833333  0.50000000  0.20833333 1
    0.20486111  0.50000000  0.20486111 1
    0.20138889  0.50000000  0.20138889 1
    0.19791667  0.50000000  0.19791667 1
    0.19444444  0.50000000  0.19444444 1
    0.19097222  0.50000000  0.19097222 1
    0.18750000  0.50000000  0.18750000 1
    0.18402778  0.50000000  0.18402778 1
    0.18055556  0.50000000  0.18055556 1
    0.17708333  0.50000000  0.17708333 1
    0.17361111  0.50000000  0.17361111 1
    0.17013889  0.50000000  0.17013889 1
    0.16666667  0.50000000  0.16666667 1
    0.16319444  0.50000000  0.16319444 1
    0.15972222  0.50000000  0.15972222 1
    0.15625000  0.50000000  0.15625000 1
    0.15277778  0.50000000  0.15277778 1
    0.14930556  0.50000000  0.14930556 1
    0.14583333  0.50000000  0.14583333 1
    0.14236111  0.50000000  0.14236111 1
    0.13888889  0.50000000  0.13888889 1
    0.13541667  0.50000000  0.13541667 1
    0.13194444  0.50000000  0.13194444 1
    0.12847222  0.50000000  0.12847222 1
    0.12500000  0.50000000  0.12500000 1
    0.12152778  0.50000000  0.12152778 1
    0.11805556  0.50000000  0.11805556 1
    0.11458333  0.50000000  0.11458333 1
    0.11111111  0.50000000  0.11111111 1
    0.10763889  0.50000000  0.10763889 1
    0.10416667  0.50000000  0.10416667 1
    0.10069444  0.50000000  0.10069444 1
    0.09722222  0.50000000  0.09722222 1
    0.09375000  0.50000000  0.09375000 1
    0.09027778  0.50000000  0.09027778 1
    0.08680556  0.50000000  0.08680556 1
    0.08333333  0.50000000  0.08333333 1
    0.07986111  0.50000000  0.07986111 1
    0.07638889  0.50000000  0.07638889 1
    0.07291667  0.50000000  0.07291667 1
    0.06944444  0.50000000  0.06944444 1
    0.06597222  0.50000000  0.06597222 1
    0.06250000  0.50000000  0.06250000 1
    0.05902778  0.50000000  0.05902778 1
    0.05555556  0.50000000  0.05555556 1
    0.05208333  0.50000000  0.05208333 1
    0.04861111  0.50000000  0.04861111 1
    0.04513889  0.50000000  0.04513889 1
    0.04166667  0.50000000  0.04166667 1
    0.03819444  0.50000000  0.03819444 1
    0.03472222  0.50000000  0.03472222 1
    0.03125000  0.50000000  0.03125000 1
    0.02777778  0.50000000  0.02777778 1
    0.02430556  0.50000000  0.02430556 1
    0.02083333  0.50000000  0.02083333 1
    0.01736111  0.50000000  0.01736111 1
    0.01388889  0.50000000  0.01388889 1
    0.01041667  0.50000000  0.01041667 1
    0.00694444  0.50000000  0.00694444 1
    0.00347222  0.50000000  0.00347222 1
    0.00000000  0.50000000  0.00000000 1
