&PROJWFC
  prefix= 'nb',
  outdir= './',
  filpdos= 'nb_pdos.dat'
/
