&CONTROL
  calculation = 'vc-relax',
  etot_conv_thr = 1d-07,
  forc_conv_thr = 1d-05,
  outdir = './',
  prefix = 'nb',
  pseudo_dir = '../../pseudo/',
  tprnfor = .TRUE.,
  tstress = .TRUE.,
  verbosity = 'low',
/
&SYSTEM
  degauss = 0.015,
  ecutrho = 340,
  ecutwfc = 85,
  ibrav = 0,
  nosym = .FALSE.,
  occupations = 'smearing',
  smearing = 'gauss',
  nat = 1,
  ntyp = 1,
/
&ELECTRONS
  conv_thr = 1d-10,
  electron_maxstep = 50,
  mixing_beta = 0.7,
/
&IONS
  ion_dynamics = 'bfgs',
  trust_radius_min = 1d-06,
/
&CELL
  cell_dynamics = 'bfgs',
  press = 1500,
  press_conv_thr = 0.1,
/
ATOMIC_SPECIES
  Nb  92.9064 Nb.upf
ATOMIC_POSITIONS crystal
  Nb 0.000000000000 0.000000000000 0.000000000000
K_POINTS automatic
  24 24 24 0 0 0
CELL_PARAMETERS angstrom
      1.6602600000      1.6602600000      1.6602600000
      1.6602600000     -1.6602600000     -1.6602600000
     -1.6602600000      1.6602600000     -1.6602600000