&CONTROL
  calculation = 'nscf',
  prefix = 'hea',
  pseudo_dir = '../../pseudo/',
  tprnfor = .TRUE.,
  tstress = .TRUE.,
  verbosity = 'low',
/
&SYSTEM
  degauss = 0.015,
  ecutrho = 340.0,
  ecutwfc = 85.0,
  ibrav = 0,
  nbnd = 260,
  nosym = .FALSE.,
  occupations = 'smearing',
  smearing = 'gauss',
  nat = 20,
  ntyp = 5,
/
&ELECTRONS
  conv_thr = 1d-10,
  electron_maxstep = 80,
  mixing_beta = 0.5,
  mixing_mode = 'local-TF',
/
&IONS
/
&CELL
/
ATOMIC_SPECIES
  Hf  178.4900 Hf.upf
  Nb  92.9064 Nb.upf
  Ta  180.9479 Ta.upf
  Ti  47.8670 Ti.upf
  Zr  91.2240 Zr.upf
ATOMIC_POSITIONS crystal
  Hf 0.601338506200 0.601338423000 0.900400128600
  Hf 0.397142865400 0.397142772200 0.844263320500
  Zr 0.599411577400 0.599411630600 0.148011310500
  Zr 0.806669401200 0.806669487600 0.460296977100
  Ta 0.797035461900 0.797035537900 0.196707670000
  Ta 0.397941414300 0.397941443100 0.101291325900
  Ta 0.600643184400 0.600643251400 0.401175656200
  Ta 0.204631695200 0.204631793200 0.302287381000
  Ta 0.000521394400 0.000521465400 0.251143400900
  Ta -0.001674898300 -0.001674992800 0.751130864600
  Ta 0.802384579200 0.802384538900 0.949061501200
  Ti 0.400370329300 0.400370299000 0.596503076900
  Ti 0.199564157300 0.199564153000 0.046646715100
  Nb 0.796997065400 0.796996975300 0.697033420800
  Nb 0.005198947200 0.005198911000 0.003340372100
  Nb -0.001437723000 -0.001437687400 0.500144048800
  Nb 0.196784798200 0.196784714700 0.800700904300
  Nb 0.399035327100 0.399035416400 0.348618974900
  Nb 0.200283520500 0.200283518600 0.552503531600
  Nb 0.597158396700 0.597158348600 0.648739418900
CELL_PARAMETERS angstrom
      6.3457058140      0.0012613440     -3.4077853540
      4.9775902020      3.9359328390     -3.4077871030
     -0.0121249100     -0.0042116290     10.1809400540
K_POINTS crystal
144
  0.00000000  0.00000000  0.00000000  6.944444e-03
  0.00000000  0.00000000  0.25000000  6.944444e-03
  0.00000000  0.00000000  0.50000000  6.944444e-03
  0.00000000  0.00000000  0.75000000  6.944444e-03
  0.00000000  0.16666667  0.00000000  6.944444e-03
  0.00000000  0.16666667  0.25000000  6.944444e-03
  0.00000000  0.16666667  0.50000000  6.944444e-03
  0.00000000  0.16666667  0.75000000  6.944444e-03
  0.00000000  0.33333333  0.00000000  6.944444e-03
  0.00000000  0.33333333  0.25000000  6.944444e-03
  0.00000000  0.33333333  0.50000000  6.944444e-03
  0.00000000  0.33333333  0.75000000  6.944444e-03
  0.00000000  0.50000000  0.00000000  6.944444e-03
  0.00000000  0.50000000  0.25000000  6.944444e-03
  0.00000000  0.50000000  0.50000000  6.944444e-03
  0.00000000  0.50000000  0.75000000  6.944444e-03
  0.00000000  0.66666667  0.00000000  6.944444e-03
  0.00000000  0.66666667  0.25000000  6.944444e-03
  0.00000000  0.66666667  0.50000000  6.944444e-03
  0.00000000  0.66666667  0.75000000  6.944444e-03
  0.00000000  0.83333333  0.00000000  6.944444e-03
  0.00000000  0.83333333  0.25000000  6.944444e-03
  0.00000000  0.83333333  0.50000000  6.944444e-03
  0.00000000  0.83333333  0.75000000  6.944444e-03
  0.16666667  0.00000000  0.00000000  6.944444e-03
  0.16666667  0.00000000  0.25000000  6.944444e-03
  0.16666667  0.00000000  0.50000000  6.944444e-03
  0.16666667  0.00000000  0.75000000  6.944444e-03
  0.16666667  0.16666667  0.00000000  6.944444e-03
  0.16666667  0.16666667  0.25000000  6.944444e-03
  0.16666667  0.16666667  0.50000000  6.944444e-03
  0.16666667  0.16666667  0.75000000  6.944444e-03
  0.16666667  0.33333333  0.00000000  6.944444e-03
  0.16666667  0.33333333  0.25000000  6.944444e-03
  0.16666667  0.33333333  0.50000000  6.944444e-03
  0.16666667  0.33333333  0.75000000  6.944444e-03
  0.16666667  0.50000000  0.00000000  6.944444e-03
  0.16666667  0.50000000  0.25000000  6.944444e-03
  0.16666667  0.50000000  0.50000000  6.944444e-03
  0.16666667  0.50000000  0.75000000  6.944444e-03
  0.16666667  0.66666667  0.00000000  6.944444e-03
  0.16666667  0.66666667  0.25000000  6.944444e-03
  0.16666667  0.66666667  0.50000000  6.944444e-03
  0.16666667  0.66666667  0.75000000  6.944444e-03
  0.16666667  0.83333333  0.00000000  6.944444e-03
  0.16666667  0.83333333  0.25000000  6.944444e-03
  0.16666667  0.83333333  0.50000000  6.944444e-03
  0.16666667  0.83333333  0.75000000  6.944444e-03
  0.33333333  0.00000000  0.00000000  6.944444e-03
  0.33333333  0.00000000  0.25000000  6.944444e-03
  0.33333333  0.00000000  0.50000000  6.944444e-03
  0.33333333  0.00000000  0.75000000  6.944444e-03
  0.33333333  0.16666667  0.00000000  6.944444e-03
  0.33333333  0.16666667  0.25000000  6.944444e-03
  0.33333333  0.16666667  0.50000000  6.944444e-03
  0.33333333  0.16666667  0.75000000  6.944444e-03
  0.33333333  0.33333333  0.00000000  6.944444e-03
  0.33333333  0.33333333  0.25000000  6.944444e-03
  0.33333333  0.33333333  0.50000000  6.944444e-03
  0.33333333  0.33333333  0.75000000  6.944444e-03
  0.33333333  0.50000000  0.00000000  6.944444e-03
  0.33333333  0.50000000  0.25000000  6.944444e-03
  0.33333333  0.50000000  0.50000000  6.944444e-03
  0.33333333  0.50000000  0.75000000  6.944444e-03
  0.33333333  0.66666667  0.00000000  6.944444e-03
  0.33333333  0.66666667  0.25000000  6.944444e-03
  0.33333333  0.66666667  0.50000000  6.944444e-03
  0.33333333  0.66666667  0.75000000  6.944444e-03
  0.33333333  0.83333333  0.00000000  6.944444e-03
  0.33333333  0.83333333  0.25000000  6.944444e-03
  0.33333333  0.83333333  0.50000000  6.944444e-03
  0.33333333  0.83333333  0.75000000  6.944444e-03
  0.50000000  0.00000000  0.00000000  6.944444e-03
  0.50000000  0.00000000  0.25000000  6.944444e-03
  0.50000000  0.00000000  0.50000000  6.944444e-03
  0.50000000  0.00000000  0.75000000  6.944444e-03
  0.50000000  0.16666667  0.00000000  6.944444e-03
  0.50000000  0.16666667  0.25000000  6.944444e-03
  0.50000000  0.16666667  0.50000000  6.944444e-03
  0.50000000  0.16666667  0.75000000  6.944444e-03
  0.50000000  0.33333333  0.00000000  6.944444e-03
  0.50000000  0.33333333  0.25000000  6.944444e-03
  0.50000000  0.33333333  0.50000000  6.944444e-03
  0.50000000  0.33333333  0.75000000  6.944444e-03
  0.50000000  0.50000000  0.00000000  6.944444e-03
  0.50000000  0.50000000  0.25000000  6.944444e-03
  0.50000000  0.50000000  0.50000000  6.944444e-03
  0.50000000  0.50000000  0.75000000  6.944444e-03
  0.50000000  0.66666667  0.00000000  6.944444e-03
  0.50000000  0.66666667  0.25000000  6.944444e-03
  0.50000000  0.66666667  0.50000000  6.944444e-03
  0.50000000  0.66666667  0.75000000  6.944444e-03
  0.50000000  0.83333333  0.00000000  6.944444e-03
  0.50000000  0.83333333  0.25000000  6.944444e-03
  0.50000000  0.83333333  0.50000000  6.944444e-03
  0.50000000  0.83333333  0.75000000  6.944444e-03
  0.66666667  0.00000000  0.00000000  6.944444e-03
  0.66666667  0.00000000  0.25000000  6.944444e-03
  0.66666667  0.00000000  0.50000000  6.944444e-03
  0.66666667  0.00000000  0.75000000  6.944444e-03
  0.66666667  0.16666667  0.00000000  6.944444e-03
  0.66666667  0.16666667  0.25000000  6.944444e-03
  0.66666667  0.16666667  0.50000000  6.944444e-03
  0.66666667  0.16666667  0.75000000  6.944444e-03
  0.66666667  0.33333333  0.00000000  6.944444e-03
  0.66666667  0.33333333  0.25000000  6.944444e-03
  0.66666667  0.33333333  0.50000000  6.944444e-03
  0.66666667  0.33333333  0.75000000  6.944444e-03
  0.66666667  0.50000000  0.00000000  6.944444e-03
  0.66666667  0.50000000  0.25000000  6.944444e-03
  0.66666667  0.50000000  0.50000000  6.944444e-03
  0.66666667  0.50000000  0.75000000  6.944444e-03
  0.66666667  0.66666667  0.00000000  6.944444e-03
  0.66666667  0.66666667  0.25000000  6.944444e-03
  0.66666667  0.66666667  0.50000000  6.944444e-03
  0.66666667  0.66666667  0.75000000  6.944444e-03
  0.66666667  0.83333333  0.00000000  6.944444e-03
  0.66666667  0.83333333  0.25000000  6.944444e-03
  0.66666667  0.83333333  0.50000000  6.944444e-03
  0.66666667  0.83333333  0.75000000  6.944444e-03
  0.83333333  0.00000000  0.00000000  6.944444e-03
  0.83333333  0.00000000  0.25000000  6.944444e-03
  0.83333333  0.00000000  0.50000000  6.944444e-03
  0.83333333  0.00000000  0.75000000  6.944444e-03
  0.83333333  0.16666667  0.00000000  6.944444e-03
  0.83333333  0.16666667  0.25000000  6.944444e-03
  0.83333333  0.16666667  0.50000000  6.944444e-03
  0.83333333  0.16666667  0.75000000  6.944444e-03
  0.83333333  0.33333333  0.00000000  6.944444e-03
  0.83333333  0.33333333  0.25000000  6.944444e-03
  0.83333333  0.33333333  0.50000000  6.944444e-03
  0.83333333  0.33333333  0.75000000  6.944444e-03
  0.83333333  0.50000000  0.00000000  6.944444e-03
  0.83333333  0.50000000  0.25000000  6.944444e-03
  0.83333333  0.50000000  0.50000000  6.944444e-03
  0.83333333  0.50000000  0.75000000  6.944444e-03
  0.83333333  0.66666667  0.00000000  6.944444e-03
  0.83333333  0.66666667  0.25000000  6.944444e-03
  0.83333333  0.66666667  0.50000000  6.944444e-03
  0.83333333  0.66666667  0.75000000  6.944444e-03
  0.83333333  0.83333333  0.00000000  6.944444e-03
  0.83333333  0.83333333  0.25000000  6.944444e-03
  0.83333333  0.83333333  0.50000000  6.944444e-03
  0.83333333  0.83333333  0.75000000  6.944444e-03
