&CONTROL
  calculation = 'bands',
  prefix = 'nbti',
  pseudo_dir = '../../pseudo/',
  verbosity = 'low',
/
&SYSTEM
  degauss = 0.015,
  ecutrho = 340.0,
  ecutwfc = 85.0,
  ibrav = 0,
  nbnd = 40,
  nosym = .FALSE.,
  occupations = 'smearing',
  smearing = 'gauss',
  nat = 2,
  ntyp = 2,
/
&ELECTRONS
  conv_thr = 1d-10,
  diagonalization = 'davidson',
  electron_maxstep = 40,
  mixing_beta = 0.7,
/
&IONS
/
&CELL
/
ATOMIC_SPECIES
  Nb  92.9064 Nb.upf
  Ti  47.8670 Ti.upf
ATOMIC_POSITIONS crystal
  Ti 0.500000000000 0.500000000000 0.500000000000
  Nb 0.000000000000 0.000000000000 0.000000000000
CELL_PARAMETERS angstrom
      2.8991126490      0.0000000000      0.0000000000
      0.0000000000      2.8991126490      0.0000000000
      0.0000000000      0.0000000000      2.8991126490
K_POINTS crystal
714
    0.00000000  0.00000000  0.00000000 1
    0.00000000  0.00462963  0.00000000 1
    0.00000000  0.00925926  0.00000000 1
    0.00000000  0.01388889  0.00000000 1
    0.00000000  0.01851852  0.00000000 1
    0.00000000  0.02314815  0.00000000 1
    0.00000000  0.02777778  0.00000000 1
    0.00000000  0.03240741  0.00000000 1
    0.00000000  0.03703704  0.00000000 1
    0.00000000  0.04166667  0.00000000 1
    0.00000000  0.04629630  0.00000000 1
    0.00000000  0.05092593  0.00000000 1
    0.00000000  0.05555556  0.00000000 1
    0.00000000  0.06018519  0.00000000 1
    0.00000000  0.06481481  0.00000000 1
    0.00000000  0.06944444  0.00000000 1
    0.00000000  0.07407407  0.00000000 1
    0.00000000  0.07870370  0.00000000 1
    0.00000000  0.08333333  0.00000000 1
    0.00000000  0.08796296  0.00000000 1
    0.00000000  0.09259259  0.00000000 1
    0.00000000  0.09722222  0.00000000 1
    0.00000000  0.10185185  0.00000000 1
    0.00000000  0.10648148  0.00000000 1
    0.00000000  0.11111111  0.00000000 1
    0.00000000  0.11574074  0.00000000 1
    0.00000000  0.12037037  0.00000000 1
    0.00000000  0.12500000  0.00000000 1
    0.00000000  0.12962963  0.00000000 1
    0.00000000  0.13425926  0.00000000 1
    0.00000000  0.13888889  0.00000000 1
    0.00000000  0.14351852  0.00000000 1
    0.00000000  0.14814815  0.00000000 1
    0.00000000  0.15277778  0.00000000 1
    0.00000000  0.15740741  0.00000000 1
    0.00000000  0.16203704  0.00000000 1
    0.00000000  0.16666667  0.00000000 1
    0.00000000  0.17129630  0.00000000 1
    0.00000000  0.17592593  0.00000000 1
    0.00000000  0.18055556  0.00000000 1
    0.00000000  0.18518519  0.00000000 1
    0.00000000  0.18981481  0.00000000 1
    0.00000000  0.19444444  0.00000000 1
    0.00000000  0.19907407  0.00000000 1
    0.00000000  0.20370370  0.00000000 1
    0.00000000  0.20833333  0.00000000 1
    0.00000000  0.21296296  0.00000000 1
    0.00000000  0.21759259  0.00000000 1
    0.00000000  0.22222222  0.00000000 1
    0.00000000  0.22685185  0.00000000 1
    0.00000000  0.23148148  0.00000000 1
    0.00000000  0.23611111  0.00000000 1
    0.00000000  0.24074074  0.00000000 1
    0.00000000  0.24537037  0.00000000 1
    0.00000000  0.25000000  0.00000000 1
    0.00000000  0.25462963  0.00000000 1
    0.00000000  0.25925926  0.00000000 1
    0.00000000  0.26388889  0.00000000 1
    0.00000000  0.26851852  0.00000000 1
    0.00000000  0.27314815  0.00000000 1
    0.00000000  0.27777778  0.00000000 1
    0.00000000  0.28240741  0.00000000 1
    0.00000000  0.28703704  0.00000000 1
    0.00000000  0.29166667  0.00000000 1
    0.00000000  0.29629630  0.00000000 1
    0.00000000  0.30092593  0.00000000 1
    0.00000000  0.30555556  0.00000000 1
    0.00000000  0.31018519  0.00000000 1
    0.00000000  0.31481481  0.00000000 1
    0.00000000  0.31944444  0.00000000 1
    0.00000000  0.32407407  0.00000000 1
    0.00000000  0.32870370  0.00000000 1
    0.00000000  0.33333333  0.00000000 1
    0.00000000  0.33796296  0.00000000 1
    0.00000000  0.34259259  0.00000000 1
    0.00000000  0.34722222  0.00000000 1
    0.00000000  0.35185185  0.00000000 1
    0.00000000  0.35648148  0.00000000 1
    0.00000000  0.36111111  0.00000000 1
    0.00000000  0.36574074  0.00000000 1
    0.00000000  0.37037037  0.00000000 1
    0.00000000  0.37500000  0.00000000 1
    0.00000000  0.37962963  0.00000000 1
    0.00000000  0.38425926  0.00000000 1
    0.00000000  0.38888889  0.00000000 1
    0.00000000  0.39351852  0.00000000 1
    0.00000000  0.39814815  0.00000000 1
    0.00000000  0.40277778  0.00000000 1
    0.00000000  0.40740741  0.00000000 1
    0.00000000  0.41203704  0.00000000 1
    0.00000000  0.41666667  0.00000000 1
    0.00000000  0.42129630  0.00000000 1
    0.00000000  0.42592593  0.00000000 1
    0.00000000  0.43055556  0.00000000 1
    0.00000000  0.43518519  0.00000000 1
    0.00000000  0.43981481  0.00000000 1
    0.00000000  0.44444444  0.00000000 1
    0.00000000  0.44907407  0.00000000 1
    0.00000000  0.45370370  0.00000000 1
    0.00000000  0.45833333  0.00000000 1
    0.00000000  0.46296296  0.00000000 1
    0.00000000  0.46759259  0.00000000 1
    0.00000000  0.47222222  0.00000000 1
    0.00000000  0.47685185  0.00000000 1
    0.00000000  0.48148148  0.00000000 1
    0.00000000  0.48611111  0.00000000 1
    0.00000000  0.49074074  0.00000000 1
    0.00000000  0.49537037  0.00000000 1
    0.00000000  0.50000000  0.00000000 1
    0.00462963  0.50000000  0.00000000 1
    0.00925926  0.50000000  0.00000000 1
    0.01388889  0.50000000  0.00000000 1
    0.01851852  0.50000000  0.00000000 1
    0.02314815  0.50000000  0.00000000 1
    0.02777778  0.50000000  0.00000000 1
    0.03240741  0.50000000  0.00000000 1
    0.03703704  0.50000000  0.00000000 1
    0.04166667  0.50000000  0.00000000 1
    0.04629630  0.50000000  0.00000000 1
    0.05092593  0.50000000  0.00000000 1
    0.05555556  0.50000000  0.00000000 1
    0.06018519  0.50000000  0.00000000 1
    0.06481481  0.50000000  0.00000000 1
    0.06944444  0.50000000  0.00000000 1
    0.07407407  0.50000000  0.00000000 1
    0.07870370  0.50000000  0.00000000 1
    0.08333333  0.50000000  0.00000000 1
    0.08796296  0.50000000  0.00000000 1
    0.09259259  0.50000000  0.00000000 1
    0.09722222  0.50000000  0.00000000 1
    0.10185185  0.50000000  0.00000000 1
    0.10648148  0.50000000  0.00000000 1
    0.11111111  0.50000000  0.00000000 1
    0.11574074  0.50000000  0.00000000 1
    0.12037037  0.50000000  0.00000000 1
    0.12500000  0.50000000  0.00000000 1
    0.12962963  0.50000000  0.00000000 1
    0.13425926  0.50000000  0.00000000 1
    0.13888889  0.50000000  0.00000000 1
    0.14351852  0.50000000  0.00000000 1
    0.14814815  0.50000000  0.00000000 1
    0.15277778  0.50000000  0.00000000 1
    0.15740741  0.50000000  0.00000000 1
    0.16203704  0.50000000  0.00000000 1
    0.16666667  0.50000000  0.00000000 1
    0.17129630  0.50000000  0.00000000 1
    0.17592593  0.50000000  0.00000000 1
    0.18055556  0.50000000  0.00000000 1
    0.18518519  0.50000000  0.00000000 1
    0.18981481  0.50000000  0.00000000 1
    0.19444444  0.50000000  0.00000000 1
    0.19907407  0.50000000  0.00000000 1
    0.20370370  0.50000000  0.00000000 1
    0.20833333  0.50000000  0.00000000 1
    0.21296296  0.50000000  0.00000000 1
    0.21759259  0.50000000  0.00000000 1
    0.22222222  0.50000000  0.00000000 1
    0.22685185  0.50000000  0.00000000 1
    0.23148148  0.50000000  0.00000000 1
    0.23611111  0.50000000  0.00000000 1
    0.24074074  0.50000000  0.00000000 1
    0.24537037  0.50000000  0.00000000 1
    0.25000000  0.50000000  0.00000000 1
    0.25462963  0.50000000  0.00000000 1
    0.25925926  0.50000000  0.00000000 1
    0.26388889  0.50000000  0.00000000 1
    0.26851852  0.50000000  0.00000000 1
    0.27314815  0.50000000  0.00000000 1
    0.27777778  0.50000000  0.00000000 1
    0.28240741  0.50000000  0.00000000 1
    0.28703704  0.50000000  0.00000000 1
    0.29166667  0.50000000  0.00000000 1
    0.29629630  0.50000000  0.00000000 1
    0.30092593  0.50000000  0.00000000 1
    0.30555556  0.50000000  0.00000000 1
    0.31018519  0.50000000  0.00000000 1
    0.31481481  0.50000000  0.00000000 1
    0.31944444  0.50000000  0.00000000 1
    0.32407407  0.50000000  0.00000000 1
    0.32870370  0.50000000  0.00000000 1
    0.33333333  0.50000000  0.00000000 1
    0.33796296  0.50000000  0.00000000 1
    0.34259259  0.50000000  0.00000000 1
    0.34722222  0.50000000  0.00000000 1
    0.35185185  0.50000000  0.00000000 1
    0.35648148  0.50000000  0.00000000 1
    0.36111111  0.50000000  0.00000000 1
    0.36574074  0.50000000  0.00000000 1
    0.37037037  0.50000000  0.00000000 1
    0.37500000  0.50000000  0.00000000 1
    0.37962963  0.50000000  0.00000000 1
    0.38425926  0.50000000  0.00000000 1
    0.38888889  0.50000000  0.00000000 1
    0.39351852  0.50000000  0.00000000 1
    0.39814815  0.50000000  0.00000000 1
    0.40277778  0.50000000  0.00000000 1
    0.40740741  0.50000000  0.00000000 1
    0.41203704  0.50000000  0.00000000 1
    0.41666667  0.50000000  0.00000000 1
    0.42129630  0.50000000  0.00000000 1
    0.42592593  0.50000000  0.00000000 1
    0.43055556  0.50000000  0.00000000 1
    0.43518519  0.50000000  0.00000000 1
    0.43981481  0.50000000  0.00000000 1
    0.44444444  0.50000000  0.00000000 1
    0.44907407  0.50000000  0.00000000 1
    0.45370370  0.50000000  0.00000000 1
    0.45833333  0.50000000  0.00000000 1
    0.46296296  0.50000000  0.00000000 1
    0.46759259  0.50000000  0.00000000 1
    0.47222222  0.50000000  0.00000000 1
    0.47685185  0.50000000  0.00000000 1
    0.48148148  0.50000000  0.00000000 1
    0.48611111  0.50000000  0.00000000 1
    0.49074074  0.50000000  0.00000000 1
    0.49537037  0.50000000  0.00000000 1
    0.50000000  0.50000000  0.00000000 1
    0.49675325  0.49675325  0.00000000 1
    0.49350649  0.49350649  0.00000000 1
    0.49025974  0.49025974  0.00000000 1
    0.48701299  0.48701299  0.00000000 1
    0.48376623  0.48376623  0.00000000 1
    0.48051948  0.48051948  0.00000000 1
    0.47727273  0.47727273  0.00000000 1
    0.47402597  0.47402597  0.00000000 1
    0.47077922  0.47077922  0.00000000 1
    0.46753247  0.46753247  0.00000000 1
    0.46428571  0.46428571  0.00000000 1
    0.46103896  0.46103896  0.00000000 1
    0.45779221  0.45779221  0.00000000 1
    0.45454545  0.45454545  0.00000000 1
    0.45129870  0.45129870  0.00000000 1
    0.44805195  0.44805195  0.00000000 1
    0.44480519  0.44480519  0.00000000 1
    0.44155844  0.44155844  0.00000000 1
    0.43831169  0.43831169  0.00000000 1
    0.43506494  0.43506494  0.00000000 1
    0.43181818  0.43181818  0.00000000 1
    0.42857143  0.42857143  0.00000000 1
    0.42532468  0.42532468  0.00000000 1
    0.42207792  0.42207792  0.00000000 1
    0.41883117  0.41883117  0.00000000 1
    0.41558442  0.41558442  0.00000000 1
    0.41233766  0.41233766  0.00000000 1
    0.40909091  0.40909091  0.00000000 1
    0.40584416  0.40584416  0.00000000 1
    0.40259740  0.40259740  0.00000000 1
    0.39935065  0.39935065  0.00000000 1
    0.39610390  0.39610390  0.00000000 1
    0.39285714  0.39285714  0.00000000 1
    0.38961039  0.38961039  0.00000000 1
    0.38636364  0.38636364  0.00000000 1
    0.38311688  0.38311688  0.00000000 1
    0.37987013  0.37987013  0.00000000 1
    0.37662338  0.37662338  0.00000000 1
    0.37337662  0.37337662  0.00000000 1
    0.37012987  0.37012987  0.00000000 1
    0.36688312  0.36688312  0.00000000 1
    0.36363636  0.36363636  0.00000000 1
    0.36038961  0.36038961  0.00000000 1
    0.35714286  0.35714286  0.00000000 1
    0.35389610  0.35389610  0.00000000 1
    0.35064935  0.35064935  0.00000000 1
    0.34740260  0.34740260  0.00000000 1
    0.34415584  0.34415584  0.00000000 1
    0.34090909  0.34090909  0.00000000 1
    0.33766234  0.33766234  0.00000000 1
    0.33441558  0.33441558  0.00000000 1
    0.33116883  0.33116883  0.00000000 1
    0.32792208  0.32792208  0.00000000 1
    0.32467532  0.32467532  0.00000000 1
    0.32142857  0.32142857  0.00000000 1
    0.31818182  0.31818182  0.00000000 1
    0.31493506  0.31493506  0.00000000 1
    0.31168831  0.31168831  0.00000000 1
    0.30844156  0.30844156  0.00000000 1
    0.30519481  0.30519481  0.00000000 1
    0.30194805  0.30194805  0.00000000 1
    0.29870130  0.29870130  0.00000000 1
    0.29545455  0.29545455  0.00000000 1
    0.29220779  0.29220779  0.00000000 1
    0.28896104  0.28896104  0.00000000 1
    0.28571429  0.28571429  0.00000000 1
    0.28246753  0.28246753  0.00000000 1
    0.27922078  0.27922078  0.00000000 1
    0.27597403  0.27597403  0.00000000 1
    0.27272727  0.27272727  0.00000000 1
    0.26948052  0.26948052  0.00000000 1
    0.26623377  0.26623377  0.00000000 1
    0.26298701  0.26298701  0.00000000 1
    0.25974026  0.25974026  0.00000000 1
    0.25649351  0.25649351  0.00000000 1
    0.25324675  0.25324675  0.00000000 1
    0.25000000  0.25000000  0.00000000 1
    0.24675325  0.24675325  0.00000000 1
    0.24350649  0.24350649  0.00000000 1
    0.24025974  0.24025974  0.00000000 1
    0.23701299  0.23701299  0.00000000 1
    0.23376623  0.23376623  0.00000000 1
    0.23051948  0.23051948  0.00000000 1
    0.22727273  0.22727273  0.00000000 1
    0.22402597  0.22402597  0.00000000 1
    0.22077922  0.22077922  0.00000000 1
    0.21753247  0.21753247  0.00000000 1
    0.21428571  0.21428571  0.00000000 1
    0.21103896  0.21103896  0.00000000 1
    0.20779221  0.20779221  0.00000000 1
    0.20454545  0.20454545  0.00000000 1
    0.20129870  0.20129870  0.00000000 1
    0.19805195  0.19805195  0.00000000 1
    0.19480519  0.19480519  0.00000000 1
    0.19155844  0.19155844  0.00000000 1
    0.18831169  0.18831169  0.00000000 1
    0.18506494  0.18506494  0.00000000 1
    0.18181818  0.18181818  0.00000000 1
    0.17857143  0.17857143  0.00000000 1
    0.17532468  0.17532468  0.00000000 1
    0.17207792  0.17207792  0.00000000 1
    0.16883117  0.16883117  0.00000000 1
    0.16558442  0.16558442  0.00000000 1
    0.16233766  0.16233766  0.00000000 1
    0.15909091  0.15909091  0.00000000 1
    0.15584416  0.15584416  0.00000000 1
    0.15259740  0.15259740  0.00000000 1
    0.14935065  0.14935065  0.00000000 1
    0.14610390  0.14610390  0.00000000 1
    0.14285714  0.14285714  0.00000000 1
    0.13961039  0.13961039  0.00000000 1
    0.13636364  0.13636364  0.00000000 1
    0.13311688  0.13311688  0.00000000 1
    0.12987013  0.12987013  0.00000000 1
    0.12662338  0.12662338  0.00000000 1
    0.12337662  0.12337662  0.00000000 1
    0.12012987  0.12012987  0.00000000 1
    0.11688312  0.11688312  0.00000000 1
    0.11363636  0.11363636  0.00000000 1
    0.11038961  0.11038961  0.00000000 1
    0.10714286  0.10714286  0.00000000 1
    0.10389610  0.10389610  0.00000000 1
    0.10064935  0.10064935  0.00000000 1
    0.09740260  0.09740260  0.00000000 1
    0.09415584  0.09415584  0.00000000 1
    0.09090909  0.09090909  0.00000000 1
    0.08766234  0.08766234  0.00000000 1
    0.08441558  0.08441558  0.00000000 1
    0.08116883  0.08116883  0.00000000 1
    0.07792208  0.07792208  0.00000000 1
    0.07467532  0.07467532  0.00000000 1
    0.07142857  0.07142857  0.00000000 1
    0.06818182  0.06818182  0.00000000 1
    0.06493506  0.06493506  0.00000000 1
    0.06168831  0.06168831  0.00000000 1
    0.05844156  0.05844156  0.00000000 1
    0.05519481  0.05519481  0.00000000 1
    0.05194805  0.05194805  0.00000000 1
    0.04870130  0.04870130  0.00000000 1
    0.04545455  0.04545455  0.00000000 1
    0.04220779  0.04220779  0.00000000 1
    0.03896104  0.03896104  0.00000000 1
    0.03571429  0.03571429  0.00000000 1
    0.03246753  0.03246753  0.00000000 1
    0.02922078  0.02922078  0.00000000 1
    0.02597403  0.02597403  0.00000000 1
    0.02272727  0.02272727  0.00000000 1
    0.01948052  0.01948052  0.00000000 1
    0.01623377  0.01623377  0.00000000 1
    0.01298701  0.01298701  0.00000000 1
    0.00974026  0.00974026  0.00000000 1
    0.00649351  0.00649351  0.00000000 1
    0.00324675  0.00324675  0.00000000 1
    0.00000000  0.00000000  0.00000000 1
    0.00264550  0.00264550  0.00264550 1
    0.00529101  0.00529101  0.00529101 1
    0.00793651  0.00793651  0.00793651 1
    0.01058201  0.01058201  0.01058201 1
    0.01322751  0.01322751  0.01322751 1
    0.01587302  0.01587302  0.01587302 1
    0.01851852  0.01851852  0.01851852 1
    0.02116402  0.02116402  0.02116402 1
    0.02380952  0.02380952  0.02380952 1
    0.02645503  0.02645503  0.02645503 1
    0.02910053  0.02910053  0.02910053 1
    0.03174603  0.03174603  0.03174603 1
    0.03439153  0.03439153  0.03439153 1
    0.03703704  0.03703704  0.03703704 1
    0.03968254  0.03968254  0.03968254 1
    0.04232804  0.04232804  0.04232804 1
    0.04497354  0.04497354  0.04497354 1
    0.04761905  0.04761905  0.04761905 1
    0.05026455  0.05026455  0.05026455 1
    0.05291005  0.05291005  0.05291005 1
    0.05555556  0.05555556  0.05555556 1
    0.05820106  0.05820106  0.05820106 1
    0.06084656  0.06084656  0.06084656 1
    0.06349206  0.06349206  0.06349206 1
    0.06613757  0.06613757  0.06613757 1
    0.06878307  0.06878307  0.06878307 1
    0.07142857  0.07142857  0.07142857 1
    0.07407407  0.07407407  0.07407407 1
    0.07671958  0.07671958  0.07671958 1
    0.07936508  0.07936508  0.07936508 1
    0.08201058  0.08201058  0.08201058 1
    0.08465608  0.08465608  0.08465608 1
    0.08730159  0.08730159  0.08730159 1
    0.08994709  0.08994709  0.08994709 1
    0.09259259  0.09259259  0.09259259 1
    0.09523810  0.09523810  0.09523810 1
    0.09788360  0.09788360  0.09788360 1
    0.10052910  0.10052910  0.10052910 1
    0.10317460  0.10317460  0.10317460 1
    0.10582011  0.10582011  0.10582011 1
    0.10846561  0.10846561  0.10846561 1
    0.11111111  0.11111111  0.11111111 1
    0.11375661  0.11375661  0.11375661 1
    0.11640212  0.11640212  0.11640212 1
    0.11904762  0.11904762  0.11904762 1
    0.12169312  0.12169312  0.12169312 1
    0.12433862  0.12433862  0.12433862 1
    0.12698413  0.12698413  0.12698413 1
    0.12962963  0.12962963  0.12962963 1
    0.13227513  0.13227513  0.13227513 1
    0.13492063  0.13492063  0.13492063 1
    0.13756614  0.13756614  0.13756614 1
    0.14021164  0.14021164  0.14021164 1
    0.14285714  0.14285714  0.14285714 1
    0.14550265  0.14550265  0.14550265 1
    0.14814815  0.14814815  0.14814815 1
    0.15079365  0.15079365  0.15079365 1
    0.15343915  0.15343915  0.15343915 1
    0.15608466  0.15608466  0.15608466 1
    0.15873016  0.15873016  0.15873016 1
    0.16137566  0.16137566  0.16137566 1
    0.16402116  0.16402116  0.16402116 1
    0.16666667  0.16666667  0.16666667 1
    0.16931217  0.16931217  0.16931217 1
    0.17195767  0.17195767  0.17195767 1
    0.17460317  0.17460317  0.17460317 1
    0.17724868  0.17724868  0.17724868 1
    0.17989418  0.17989418  0.17989418 1
    0.18253968  0.18253968  0.18253968 1
    0.18518519  0.18518519  0.18518519 1
    0.18783069  0.18783069  0.18783069 1
    0.19047619  0.19047619  0.19047619 1
    0.19312169  0.19312169  0.19312169 1
    0.19576720  0.19576720  0.19576720 1
    0.19841270  0.19841270  0.19841270 1
    0.20105820  0.20105820  0.20105820 1
    0.20370370  0.20370370  0.20370370 1
    0.20634921  0.20634921  0.20634921 1
    0.20899471  0.20899471  0.20899471 1
    0.21164021  0.21164021  0.21164021 1
    0.21428571  0.21428571  0.21428571 1
    0.21693122  0.21693122  0.21693122 1
    0.21957672  0.21957672  0.21957672 1
    0.22222222  0.22222222  0.22222222 1
    0.22486772  0.22486772  0.22486772 1
    0.22751323  0.22751323  0.22751323 1
    0.23015873  0.23015873  0.23015873 1
    0.23280423  0.23280423  0.23280423 1
    0.23544974  0.23544974  0.23544974 1
    0.23809524  0.23809524  0.23809524 1
    0.24074074  0.24074074  0.24074074 1
    0.24338624  0.24338624  0.24338624 1
    0.24603175  0.24603175  0.24603175 1
    0.24867725  0.24867725  0.24867725 1
    0.25132275  0.25132275  0.25132275 1
    0.25396825  0.25396825  0.25396825 1
    0.25661376  0.25661376  0.25661376 1
    0.25925926  0.25925926  0.25925926 1
    0.26190476  0.26190476  0.26190476 1
    0.26455026  0.26455026  0.26455026 1
    0.26719577  0.26719577  0.26719577 1
    0.26984127  0.26984127  0.26984127 1
    0.27248677  0.27248677  0.27248677 1
    0.27513228  0.27513228  0.27513228 1
    0.27777778  0.27777778  0.27777778 1
    0.28042328  0.28042328  0.28042328 1
    0.28306878  0.28306878  0.28306878 1
    0.28571429  0.28571429  0.28571429 1
    0.28835979  0.28835979  0.28835979 1
    0.29100529  0.29100529  0.29100529 1
    0.29365079  0.29365079  0.29365079 1
    0.29629630  0.29629630  0.29629630 1
    0.29894180  0.29894180  0.29894180 1
    0.30158730  0.30158730  0.30158730 1
    0.30423280  0.30423280  0.30423280 1
    0.30687831  0.30687831  0.30687831 1
    0.30952381  0.30952381  0.30952381 1
    0.31216931  0.31216931  0.31216931 1
    0.31481481  0.31481481  0.31481481 1
    0.31746032  0.31746032  0.31746032 1
    0.32010582  0.32010582  0.32010582 1
    0.32275132  0.32275132  0.32275132 1
    0.32539683  0.32539683  0.32539683 1
    0.32804233  0.32804233  0.32804233 1
    0.33068783  0.33068783  0.33068783 1
    0.33333333  0.33333333  0.33333333 1
    0.33597884  0.33597884  0.33597884 1
    0.33862434  0.33862434  0.33862434 1
    0.34126984  0.34126984  0.34126984 1
    0.34391534  0.34391534  0.34391534 1
    0.34656085  0.34656085  0.34656085 1
    0.34920635  0.34920635  0.34920635 1
    0.35185185  0.35185185  0.35185185 1
    0.35449735  0.35449735  0.35449735 1
    0.35714286  0.35714286  0.35714286 1
    0.35978836  0.35978836  0.35978836 1
    0.36243386  0.36243386  0.36243386 1
    0.36507937  0.36507937  0.36507937 1
    0.36772487  0.36772487  0.36772487 1
    0.37037037  0.37037037  0.37037037 1
    0.37301587  0.37301587  0.37301587 1
    0.37566138  0.37566138  0.37566138 1
    0.37830688  0.37830688  0.37830688 1
    0.38095238  0.38095238  0.38095238 1
    0.38359788  0.38359788  0.38359788 1
    0.38624339  0.38624339  0.38624339 1
    0.38888889  0.38888889  0.38888889 1
    0.39153439  0.39153439  0.39153439 1
    0.39417989  0.39417989  0.39417989 1
    0.39682540  0.39682540  0.39682540 1
    0.39947090  0.39947090  0.39947090 1
    0.40211640  0.40211640  0.40211640 1
    0.40476190  0.40476190  0.40476190 1
    0.40740741  0.40740741  0.40740741 1
    0.41005291  0.41005291  0.41005291 1
    0.41269841  0.41269841  0.41269841 1
    0.41534392  0.41534392  0.41534392 1
    0.41798942  0.41798942  0.41798942 1
    0.42063492  0.42063492  0.42063492 1
    0.42328042  0.42328042  0.42328042 1
    0.42592593  0.42592593  0.42592593 1
    0.42857143  0.42857143  0.42857143 1
    0.43121693  0.43121693  0.43121693 1
    0.43386243  0.43386243  0.43386243 1
    0.43650794  0.43650794  0.43650794 1
    0.43915344  0.43915344  0.43915344 1
    0.44179894  0.44179894  0.44179894 1
    0.44444444  0.44444444  0.44444444 1
    0.44708995  0.44708995  0.44708995 1
    0.44973545  0.44973545  0.44973545 1
    0.45238095  0.45238095  0.45238095 1
    0.45502646  0.45502646  0.45502646 1
    0.45767196  0.45767196  0.45767196 1
    0.46031746  0.46031746  0.46031746 1
    0.46296296  0.46296296  0.46296296 1
    0.46560847  0.46560847  0.46560847 1
    0.46825397  0.46825397  0.46825397 1
    0.47089947  0.47089947  0.47089947 1
    0.47354497  0.47354497  0.47354497 1
    0.47619048  0.47619048  0.47619048 1
    0.47883598  0.47883598  0.47883598 1
    0.48148148  0.48148148  0.48148148 1
    0.48412698  0.48412698  0.48412698 1
    0.48677249  0.48677249  0.48677249 1
    0.48941799  0.48941799  0.48941799 1
    0.49206349  0.49206349  0.49206349 1
    0.49470899  0.49470899  0.49470899 1
    0.49735450  0.49735450  0.49735450 1
    0.50000000  0.50000000  0.50000000 1
    0.49675325  0.50000000  0.49675325 1
    0.49350649  0.50000000  0.49350649 1
    0.49025974  0.50000000  0.49025974 1
    0.48701299  0.50000000  0.48701299 1
    0.48376623  0.50000000  0.48376623 1
    0.48051948  0.50000000  0.48051948 1
    0.47727273  0.50000000  0.47727273 1
    0.47402597  0.50000000  0.47402597 1
    0.47077922  0.50000000  0.47077922 1
    0.46753247  0.50000000  0.46753247 1
    0.46428571  0.50000000  0.46428571 1
    0.46103896  0.50000000  0.46103896 1
    0.45779221  0.50000000  0.45779221 1
    0.45454545  0.50000000  0.45454545 1
    0.45129870  0.50000000  0.45129870 1
    0.44805195  0.50000000  0.44805195 1
    0.44480519  0.50000000  0.44480519 1
    0.44155844  0.50000000  0.44155844 1
    0.43831169  0.50000000  0.43831169 1
    0.43506494  0.50000000  0.43506494 1
    0.43181818  0.50000000  0.43181818 1
    0.42857143  0.50000000  0.42857143 1
    0.42532468  0.50000000  0.42532468 1
    0.42207792  0.50000000  0.42207792 1
    0.41883117  0.50000000  0.41883117 1
    0.41558442  0.50000000  0.41558442 1
    0.41233766  0.50000000  0.41233766 1
    0.40909091  0.50000000  0.40909091 1
    0.40584416  0.50000000  0.40584416 1
    0.40259740  0.50000000  0.40259740 1
    0.39935065  0.50000000  0.39935065 1
    0.39610390  0.50000000  0.39610390 1
    0.39285714  0.50000000  0.39285714 1
    0.38961039  0.50000000  0.38961039 1
    0.38636364  0.50000000  0.38636364 1
    0.38311688  0.50000000  0.38311688 1
    0.37987013  0.50000000  0.37987013 1
    0.37662338  0.50000000  0.37662338 1
    0.37337662  0.50000000  0.37337662 1
    0.37012987  0.50000000  0.37012987 1
    0.36688312  0.50000000  0.36688312 1
    0.36363636  0.50000000  0.36363636 1
    0.36038961  0.50000000  0.36038961 1
    0.35714286  0.50000000  0.35714286 1
    0.35389610  0.50000000  0.35389610 1
    0.35064935  0.50000000  0.35064935 1
    0.34740260  0.50000000  0.34740260 1
    0.34415584  0.50000000  0.34415584 1
    0.34090909  0.50000000  0.34090909 1
    0.33766234  0.50000000  0.33766234 1
    0.33441558  0.50000000  0.33441558 1
    0.33116883  0.50000000  0.33116883 1
    0.32792208  0.50000000  0.32792208 1
    0.32467532  0.50000000  0.32467532 1
    0.32142857  0.50000000  0.32142857 1
    0.31818182  0.50000000  0.31818182 1
    0.31493506  0.50000000  0.31493506 1
    0.31168831  0.50000000  0.31168831 1
    0.30844156  0.50000000  0.30844156 1
    0.30519481  0.50000000  0.30519481 1
    0.30194805  0.50000000  0.30194805 1
    0.29870130  0.50000000  0.29870130 1
    0.29545455  0.50000000  0.29545455 1
    0.29220779  0.50000000  0.29220779 1
    0.28896104  0.50000000  0.28896104 1
    0.28571429  0.50000000  0.28571429 1
    0.28246753  0.50000000  0.28246753 1
    0.27922078  0.50000000  0.27922078 1
    0.27597403  0.50000000  0.27597403 1
    0.27272727  0.50000000  0.27272727 1
    0.26948052  0.50000000  0.26948052 1
    0.26623377  0.50000000  0.26623377 1
    0.26298701  0.50000000  0.26298701 1
    0.25974026  0.50000000  0.25974026 1
    0.25649351  0.50000000  0.25649351 1
    0.25324675  0.50000000  0.25324675 1
    0.25000000  0.50000000  0.25000000 1
    0.24675325  0.50000000  0.24675325 1
    0.24350649  0.50000000  0.24350649 1
    0.24025974  0.50000000  0.24025974 1
    0.23701299  0.50000000  0.23701299 1
    0.23376623  0.50000000  0.23376623 1
    0.23051948  0.50000000  0.23051948 1
    0.22727273  0.50000000  0.22727273 1
    0.22402597  0.50000000  0.22402597 1
    0.22077922  0.50000000  0.22077922 1
    0.21753247  0.50000000  0.21753247 1
    0.21428571  0.50000000  0.21428571 1
    0.21103896  0.50000000  0.21103896 1
    0.20779221  0.50000000  0.20779221 1
    0.20454545  0.50000000  0.20454545 1
    0.20129870  0.50000000  0.20129870 1
    0.19805195  0.50000000  0.19805195 1
    0.19480519  0.50000000  0.19480519 1
    0.19155844  0.50000000  0.19155844 1
    0.18831169  0.50000000  0.18831169 1
    0.18506494  0.50000000  0.18506494 1
    0.18181818  0.50000000  0.18181818 1
    0.17857143  0.50000000  0.17857143 1
    0.17532468  0.50000000  0.17532468 1
    0.17207792  0.50000000  0.17207792 1
    0.16883117  0.50000000  0.16883117 1
    0.16558442  0.50000000  0.16558442 1
    0.16233766  0.50000000  0.16233766 1
    0.15909091  0.50000000  0.15909091 1
    0.15584416  0.50000000  0.15584416 1
    0.15259740  0.50000000  0.15259740 1
    0.14935065  0.50000000  0.14935065 1
    0.14610390  0.50000000  0.14610390 1
    0.14285714  0.50000000  0.14285714 1
    0.13961039  0.50000000  0.13961039 1
    0.13636364  0.50000000  0.13636364 1
    0.13311688  0.50000000  0.13311688 1
    0.12987013  0.50000000  0.12987013 1
    0.12662338  0.50000000  0.12662338 1
    0.12337662  0.50000000  0.12337662 1
    0.12012987  0.50000000  0.12012987 1
    0.11688312  0.50000000  0.11688312 1
    0.11363636  0.50000000  0.11363636 1
    0.11038961  0.50000000  0.11038961 1
    0.10714286  0.50000000  0.10714286 1
    0.10389610  0.50000000  0.10389610 1
    0.10064935  0.50000000  0.10064935 1
    0.09740260  0.50000000  0.09740260 1
    0.09415584  0.50000000  0.09415584 1
    0.09090909  0.50000000  0.09090909 1
    0.08766234  0.50000000  0.08766234 1
    0.08441558  0.50000000  0.08441558 1
    0.08116883  0.50000000  0.08116883 1
    0.07792208  0.50000000  0.07792208 1
    0.07467532  0.50000000  0.07467532 1
    0.07142857  0.50000000  0.07142857 1
    0.06818182  0.50000000  0.06818182 1
    0.06493506  0.50000000  0.06493506 1
    0.06168831  0.50000000  0.06168831 1
    0.05844156  0.50000000  0.05844156 1
    0.05519481  0.50000000  0.05519481 1
    0.05194805  0.50000000  0.05194805 1
    0.04870130  0.50000000  0.04870130 1
    0.04545455  0.50000000  0.04545455 1
    0.04220779  0.50000000  0.04220779 1
    0.03896104  0.50000000  0.03896104 1
    0.03571429  0.50000000  0.03571429 1
    0.03246753  0.50000000  0.03246753 1
    0.02922078  0.50000000  0.02922078 1
    0.02597403  0.50000000  0.02597403 1
    0.02272727  0.50000000  0.02272727 1
    0.01948052  0.50000000  0.01948052 1
    0.01623377  0.50000000  0.01623377 1
    0.01298701  0.50000000  0.01298701 1
    0.00974026  0.50000000  0.00974026 1