&bands
  prefix = 'nbti'
  outdir = './'
  filband = 'NbTi_band.dat'
/
