&CONTROL
  calculation = 'bands',
  prefix = 'hea',
  pseudo_dir = '../../pseudo/',
  verbosity = 'low',
/
&SYSTEM
  degauss = 0.15,
  ecutrho = 340.0,
  ecutwfc = 85.0,
  ibrav = 0,
  nbnd = 200,
  nosym = .FALSE.,
  occupations = 'smearing',
  smearing = 'gauss',
  nat = 20,
  ntyp = 5,
/
&ELECTRONS
  conv_thr = 1d-10,
  electron_maxstep = 80,
  mixing_beta = 0.7,
  mixing_mode = 'local-TF',
/
&IONS
/
&CELL
/
ATOMIC_SPECIES
  Hf  178.4900 Hf.upf
  Nb  92.9064 Nb.upf
  Ta  180.9479 Ta.upf
  Ti  47.8670 Ti.upf
  Zr  91.2240 Zr.upf
ATOMIC_POSITIONS crystal
  Hf 0.601279291600 0.601279256000 0.900974440100
  Hf 0.397805527300 0.397805491000 0.844395006700
  Zr 0.599461434300 0.599461456500 0.147917271800
  Zr 0.806392030100 0.806392062600 0.459808008100
  Ta 0.796774744300 0.796774778800 0.196997770600
  Ta 0.397870170500 0.397870184100 0.100588175600
  Ta 0.600946066700 0.600946092500 0.401164978700
  Ta 0.203955831400 0.203955870800 0.301879951000
  Ta 0.000192563800 0.000192593000 0.251091420400
  Ta -0.001315413500 -0.001315454300 0.750752311100
  Ta 0.801830888800 0.801830876100 0.948713033500
  Ti 0.399727237900 0.399727222200 0.596682975100
  Ti 0.199504234800 0.199504236400 0.046410536100
  Nb 0.797720433200 0.797720398100 0.697493193100
  Nb 0.005347392300 0.005347378500 0.003177549600
  Nb -0.001441319400 -0.001441307900 0.500102954200
  Nb 0.197168752300 0.197168720200 0.800616456000
  Nb 0.399078142000 0.399078178500 0.349251758600
  Nb 0.200686119700 0.200686117400 0.552934786500
  Nb 0.597015871800 0.597015849500 0.649047423100
CELL_PARAMETERS angstrom
      6.2304197540     -0.0054842760     -3.3410315000
      4.8891439990      3.8619194050     -3.3410329620
     -0.0095622220     -0.0033126260      9.9953499660
K_POINTS crystal
496
    0.00000000  0.00000000  0.00000000 1
    0.00000000  0.00625000  0.00000000 1
    0.00000000  0.01250000  0.00000000 1
    0.00000000  0.01875000  0.00000000 1
    0.00000000  0.02500000  0.00000000 1
    0.00000000  0.03125000  0.00000000 1
    0.00000000  0.03750000  0.00000000 1
    0.00000000  0.04375000  0.00000000 1
    0.00000000  0.05000000  0.00000000 1
    0.00000000  0.05625000  0.00000000 1
    0.00000000  0.06250000  0.00000000 1
    0.00000000  0.06875000  0.00000000 1
    0.00000000  0.07500000  0.00000000 1
    0.00000000  0.08125000  0.00000000 1
    0.00000000  0.08750000  0.00000000 1
    0.00000000  0.09375000  0.00000000 1
    0.00000000  0.10000000  0.00000000 1
    0.00000000  0.10625000  0.00000000 1
    0.00000000  0.11250000  0.00000000 1
    0.00000000  0.11875000  0.00000000 1
    0.00000000  0.12500000  0.00000000 1
    0.00000000  0.13125000  0.00000000 1
    0.00000000  0.13750000  0.00000000 1
    0.00000000  0.14375000  0.00000000 1
    0.00000000  0.15000000  0.00000000 1
    0.00000000  0.15625000  0.00000000 1
    0.00000000  0.16250000  0.00000000 1
    0.00000000  0.16875000  0.00000000 1
    0.00000000  0.17500000  0.00000000 1
    0.00000000  0.18125000  0.00000000 1
    0.00000000  0.18750000  0.00000000 1
    0.00000000  0.19375000  0.00000000 1
    0.00000000  0.20000000  0.00000000 1
    0.00000000  0.20625000  0.00000000 1
    0.00000000  0.21250000  0.00000000 1
    0.00000000  0.21875000  0.00000000 1
    0.00000000  0.22500000  0.00000000 1
    0.00000000  0.23125000  0.00000000 1
    0.00000000  0.23750000  0.00000000 1
    0.00000000  0.24375000  0.00000000 1
    0.00000000  0.25000000  0.00000000 1
    0.00000000  0.25625000  0.00000000 1
    0.00000000  0.26250000  0.00000000 1
    0.00000000  0.26875000  0.00000000 1
    0.00000000  0.27500000  0.00000000 1
    0.00000000  0.28125000  0.00000000 1
    0.00000000  0.28750000  0.00000000 1
    0.00000000  0.29375000  0.00000000 1
    0.00000000  0.30000000  0.00000000 1
    0.00000000  0.30625000  0.00000000 1
    0.00000000  0.31250000  0.00000000 1
    0.00000000  0.31875000  0.00000000 1
    0.00000000  0.32500000  0.00000000 1
    0.00000000  0.33125000  0.00000000 1
    0.00000000  0.33750000  0.00000000 1
    0.00000000  0.34375000  0.00000000 1
    0.00000000  0.35000000  0.00000000 1
    0.00000000  0.35625000  0.00000000 1
    0.00000000  0.36250000  0.00000000 1
    0.00000000  0.36875000  0.00000000 1
    0.00000000  0.37500000  0.00000000 1
    0.00000000  0.38125000  0.00000000 1
    0.00000000  0.38750000  0.00000000 1
    0.00000000  0.39375000  0.00000000 1
    0.00000000  0.40000000  0.00000000 1
    0.00000000  0.40625000  0.00000000 1
    0.00000000  0.41250000  0.00000000 1
    0.00000000  0.41875000  0.00000000 1
    0.00000000  0.42500000  0.00000000 1
    0.00000000  0.43125000  0.00000000 1
    0.00000000  0.43750000  0.00000000 1
    0.00000000  0.44375000  0.00000000 1
    0.00000000  0.45000000  0.00000000 1
    0.00000000  0.45625000  0.00000000 1
    0.00000000  0.46250000  0.00000000 1
    0.00000000  0.46875000  0.00000000 1
    0.00000000  0.47500000  0.00000000 1
    0.00000000  0.48125000  0.00000000 1
    0.00000000  0.48750000  0.00000000 1
    0.00000000  0.49375000  0.00000000 1
    0.00000000  0.50000000  0.00000000 1
    -0.00368421  0.50289474  0.00000000 1
    -0.00736842  0.50578947  0.00000000 1
    -0.01105263  0.50868421  0.00000000 1
    -0.01473684  0.51157895  0.00000000 1
    -0.01842105  0.51447368  0.00000000 1
    -0.02210526  0.51736842  0.00000000 1
    -0.02578947  0.52026316  0.00000000 1
    -0.02947368  0.52315789  0.00000000 1
    -0.03315789  0.52605263  0.00000000 1
    -0.03684211  0.52894737  0.00000000 1
    -0.04052632  0.53184211  0.00000000 1
    -0.04421053  0.53473684  0.00000000 1
    -0.04789474  0.53763158  0.00000000 1
    -0.05157895  0.54052632  0.00000000 1
    -0.05526316  0.54342105  0.00000000 1
    -0.05894737  0.54631579  0.00000000 1
    -0.06263158  0.54921053  0.00000000 1
    -0.06631579  0.55210526  0.00000000 1
    -0.07000000  0.55500000  0.00000000 1
    -0.07368421  0.55789474  0.00000000 1
    -0.07736842  0.56078947  0.00000000 1
    -0.08105263  0.56368421  0.00000000 1
    -0.08473684  0.56657895  0.00000000 1
    -0.08842105  0.56947368  0.00000000 1
    -0.09210526  0.57236842  0.00000000 1
    -0.09578947  0.57526316  0.00000000 1
    -0.09947368  0.57815789  0.00000000 1
    -0.10315789  0.58105263  0.00000000 1
    -0.10684211  0.58394737  0.00000000 1
    -0.11052632  0.58684211  0.00000000 1
    -0.11421053  0.58973684  0.00000000 1
    -0.11789474  0.59263158  0.00000000 1
    -0.12157895  0.59552632  0.00000000 1
    -0.12526316  0.59842105  0.00000000 1
    -0.12894737  0.60131579  0.00000000 1
    -0.13263158  0.60421053  0.00000000 1
    -0.13631579  0.60710526  0.00000000 1
    -0.14000000  0.61000000  0.00000000 1
    -0.14368421  0.61289474  0.00000000 1
    -0.14736842  0.61578947  0.00000000 1
    -0.15105263  0.61868421  0.00000000 1
    -0.15473684  0.62157895  0.00000000 1
    -0.15842105  0.62447368  0.00000000 1
    -0.16210526  0.62736842  0.00000000 1
    -0.16578947  0.63026316  0.00000000 1
    -0.16947368  0.63315789  0.00000000 1
    -0.17315789  0.63605263  0.00000000 1
    -0.17684211  0.63894737  0.00000000 1
    -0.18052632  0.64184211  0.00000000 1
    -0.18421053  0.64473684  0.00000000 1
    -0.18789474  0.64763158  0.00000000 1
    -0.19157895  0.65052632  0.00000000 1
    -0.19526316  0.65342105  0.00000000 1
    -0.19894737  0.65631579  0.00000000 1
    -0.20263158  0.65921053  0.00000000 1
    -0.20631579  0.66210526  0.00000000 1
    -0.21000000  0.66500000  0.00000000 1
    -0.21368421  0.66789474  0.00000000 1
    -0.21736842  0.67078947  0.00000000 1
    -0.22105263  0.67368421  0.00000000 1
    -0.22473684  0.67657895  0.00000000 1
    -0.22842105  0.67947368  0.00000000 1
    -0.23210526  0.68236842  0.00000000 1
    -0.23578947  0.68526316  0.00000000 1
    -0.23947368  0.68815789  0.00000000 1
    -0.24315789  0.69105263  0.00000000 1
    -0.24684211  0.69394737  0.00000000 1
    -0.25052632  0.69684211  0.00000000 1
    -0.25421053  0.69973684  0.00000000 1
    -0.25789474  0.70263158  0.00000000 1
    -0.26157895  0.70552632  0.00000000 1
    -0.26526316  0.70842105  0.00000000 1
    -0.26894737  0.71131579  0.00000000 1
    -0.27263158  0.71421053  0.00000000 1
    -0.27631579  0.71710526  0.00000000 1
    -0.28000000  0.72000000  0.00000000 1
    -0.28956522  0.71043478  0.00000000 1
    -0.29913043  0.70086957  0.00000000 1
    -0.30869565  0.69130435  0.00000000 1
    -0.31826087  0.68173913  0.00000000 1
    -0.32782609  0.67217391  0.00000000 1
    -0.33739130  0.66260870  0.00000000 1
    -0.34695652  0.65304348  0.00000000 1
    -0.35652174  0.64347826  0.00000000 1
    -0.36608696  0.63391304  0.00000000 1
    -0.37565217  0.62434783  0.00000000 1
    -0.38521739  0.61478261  0.00000000 1
    -0.39478261  0.60521739  0.00000000 1
    -0.40434783  0.59565217  0.00000000 1
    -0.41391304  0.58608696  0.00000000 1
    -0.42347826  0.57652174  0.00000000 1
    -0.43304348  0.56695652  0.00000000 1
    -0.44260870  0.55739130  0.00000000 1
    -0.45217391  0.54782609  0.00000000 1
    -0.46173913  0.53826087  0.00000000 1
    -0.47130435  0.52869565  0.00000000 1
    -0.48086957  0.51913043  0.00000000 1
    -0.49043478  0.50956522  0.00000000 1
    -0.50000000  0.50000000  0.00000000 1
    -0.49038462  0.49038462  0.00000000 1
    -0.48076923  0.48076923  0.00000000 1
    -0.47115385  0.47115385  0.00000000 1
    -0.46153846  0.46153846  0.00000000 1
    -0.45192308  0.45192308  0.00000000 1
    -0.44230769  0.44230769  0.00000000 1
    -0.43269231  0.43269231  0.00000000 1
    -0.42307692  0.42307692  0.00000000 1
    -0.41346154  0.41346154  0.00000000 1
    -0.40384615  0.40384615  0.00000000 1
    -0.39423077  0.39423077  0.00000000 1
    -0.38461538  0.38461538  0.00000000 1
    -0.37500000  0.37500000  0.00000000 1
    -0.36538462  0.36538462  0.00000000 1
    -0.35576923  0.35576923  0.00000000 1
    -0.34615385  0.34615385  0.00000000 1
    -0.33653846  0.33653846  0.00000000 1
    -0.32692308  0.32692308  0.00000000 1
    -0.31730769  0.31730769  0.00000000 1
    -0.30769231  0.30769231  0.00000000 1
    -0.29807692  0.29807692  0.00000000 1
    -0.28846154  0.28846154  0.00000000 1
    -0.27884615  0.27884615  0.00000000 1
    -0.26923077  0.26923077  0.00000000 1
    -0.25961538  0.25961538  0.00000000 1
    -0.25000000  0.25000000  0.00000000 1
    -0.24038462  0.24038462  0.00000000 1
    -0.23076923  0.23076923  0.00000000 1
    -0.22115385  0.22115385  0.00000000 1
    -0.21153846  0.21153846  0.00000000 1
    -0.20192308  0.20192308  0.00000000 1
    -0.19230769  0.19230769  0.00000000 1
    -0.18269231  0.18269231  0.00000000 1
    -0.17307692  0.17307692  0.00000000 1
    -0.16346154  0.16346154  0.00000000 1
    -0.15384615  0.15384615  0.00000000 1
    -0.14423077  0.14423077  0.00000000 1
    -0.13461538  0.13461538  0.00000000 1
    -0.12500000  0.12500000  0.00000000 1
    -0.11538462  0.11538462  0.00000000 1
    -0.10576923  0.10576923  0.00000000 1
    -0.09615385  0.09615385  0.00000000 1
    -0.08653846  0.08653846  0.00000000 1
    -0.07692308  0.07692308  0.00000000 1
    -0.06730769  0.06730769  0.00000000 1
    -0.05769231  0.05769231  0.00000000 1
    -0.04807692  0.04807692  0.00000000 1
    -0.03846154  0.03846154  0.00000000 1
    -0.02884615  0.02884615  0.00000000 1
    -0.01923077  0.01923077  0.00000000 1
    -0.00961538  0.00961538  0.00000000 1
    0.00000000  0.00000000  0.00000000 1
    -0.01086957  0.01086957  0.01086957 1
    -0.02173913  0.02173913  0.02173913 1
    -0.03260870  0.03260870  0.03260870 1
    -0.04347826  0.04347826  0.04347826 1
    -0.05434783  0.05434783  0.05434783 1
    -0.06521739  0.06521739  0.06521739 1
    -0.07608696  0.07608696  0.07608696 1
    -0.08695652  0.08695652  0.08695652 1
    -0.09782609  0.09782609  0.09782609 1
    -0.10869565  0.10869565  0.10869565 1
    -0.11956522  0.11956522  0.11956522 1
    -0.13043478  0.13043478  0.13043478 1
    -0.14130435  0.14130435  0.14130435 1
    -0.15217391  0.15217391  0.15217391 1
    -0.16304348  0.16304348  0.16304348 1
    -0.17391304  0.17391304  0.17391304 1
    -0.18478261  0.18478261  0.18478261 1
    -0.19565217  0.19565217  0.19565217 1
    -0.20652174  0.20652174  0.20652174 1
    -0.21739130  0.21739130  0.21739130 1
    -0.22826087  0.22826087  0.22826087 1
    -0.23913043  0.23913043  0.23913043 1
    -0.25000000  0.25000000  0.25000000 1
    -0.26086957  0.26086957  0.26086957 1
    -0.27173913  0.27173913  0.27173913 1
    -0.28260870  0.28260870  0.28260870 1
    -0.29347826  0.29347826  0.29347826 1
    -0.30434783  0.30434783  0.30434783 1
    -0.31521739  0.31521739  0.31521739 1
    -0.32608696  0.32608696  0.32608696 1
    -0.33695652  0.33695652  0.33695652 1
    -0.34782609  0.34782609  0.34782609 1
    -0.35869565  0.35869565  0.35869565 1
    -0.36956522  0.36956522  0.36956522 1
    -0.38043478  0.38043478  0.38043478 1
    -0.39130435  0.39130435  0.39130435 1
    -0.40217391  0.40217391  0.40217391 1
    -0.41304348  0.41304348  0.41304348 1
    -0.42391304  0.42391304  0.42391304 1
    -0.43478261  0.43478261  0.43478261 1
    -0.44565217  0.44565217  0.44565217 1
    -0.45652174  0.45652174  0.45652174 1
    -0.46739130  0.46739130  0.46739130 1
    -0.47826087  0.47826087  0.47826087 1
    -0.48913043  0.48913043  0.48913043 1
    -0.50000000  0.50000000  0.50000000 1
    -0.49040000  0.50960000  0.50000000 1
    -0.48080000  0.51920000  0.50000000 1
    -0.47120000  0.52880000  0.50000000 1
    -0.46160000  0.53840000  0.50000000 1
    -0.45200000  0.54800000  0.50000000 1
    -0.44240000  0.55760000  0.50000000 1
    -0.43280000  0.56720000  0.50000000 1
    -0.42320000  0.57680000  0.50000000 1
    -0.41360000  0.58640000  0.50000000 1
    -0.40400000  0.59600000  0.50000000 1
    -0.39440000  0.60560000  0.50000000 1
    -0.38480000  0.61520000  0.50000000 1
    -0.37520000  0.62480000  0.50000000 1
    -0.36560000  0.63440000  0.50000000 1
    -0.35600000  0.64400000  0.50000000 1
    -0.34640000  0.65360000  0.50000000 1
    -0.33680000  0.66320000  0.50000000 1
    -0.32720000  0.67280000  0.50000000 1
    -0.31760000  0.68240000  0.50000000 1
    -0.30800000  0.69200000  0.50000000 1
    -0.29840000  0.70160000  0.50000000 1
    -0.28880000  0.71120000  0.50000000 1
    -0.27920000  0.72080000  0.50000000 1
    -0.26960000  0.73040000  0.50000000 1
    -0.26000000  0.74000000  0.50000000 1
    -0.25657895  0.73684211  0.50000000 1
    -0.25315789  0.73368421  0.50000000 1
    -0.24973684  0.73052632  0.50000000 1
    -0.24631579  0.72736842  0.50000000 1
    -0.24289474  0.72421053  0.50000000 1
    -0.23947368  0.72105263  0.50000000 1
    -0.23605263  0.71789474  0.50000000 1
    -0.23263158  0.71473684  0.50000000 1
    -0.22921053  0.71157895  0.50000000 1
    -0.22578947  0.70842105  0.50000000 1
    -0.22236842  0.70526316  0.50000000 1
    -0.21894737  0.70210526  0.50000000 1
    -0.21552632  0.69894737  0.50000000 1
    -0.21210526  0.69578947  0.50000000 1
    -0.20868421  0.69263158  0.50000000 1
    -0.20526316  0.68947368  0.50000000 1
    -0.20184211  0.68631579  0.50000000 1
    -0.19842105  0.68315789  0.50000000 1
    -0.19500000  0.68000000  0.50000000 1
    -0.19157895  0.67684211  0.50000000 1
    -0.18815789  0.67368421  0.50000000 1
    -0.18473684  0.67052632  0.50000000 1
    -0.18131579  0.66736842  0.50000000 1
    -0.17789474  0.66421053  0.50000000 1
    -0.17447368  0.66105263  0.50000000 1
    -0.17105263  0.65789474  0.50000000 1
    -0.16763158  0.65473684  0.50000000 1
    -0.16421053  0.65157895  0.50000000 1
    -0.16078947  0.64842105  0.50000000 1
    -0.15736842  0.64526316  0.50000000 1
    -0.15394737  0.64210526  0.50000000 1
    -0.15052632  0.63894737  0.50000000 1
    -0.14710526  0.63578947  0.50000000 1
    -0.14368421  0.63263158  0.50000000 1
    -0.14026316  0.62947368  0.50000000 1
    -0.13684211  0.62631579  0.50000000 1
    -0.13342105  0.62315789  0.50000000 1
    -0.13000000  0.62000000  0.50000000 1
    -0.12657895  0.61684211  0.50000000 1
    -0.12315789  0.61368421  0.50000000 1
    -0.11973684  0.61052632  0.50000000 1
    -0.11631579  0.60736842  0.50000000 1
    -0.11289474  0.60421053  0.50000000 1
    -0.10947368  0.60105263  0.50000000 1
    -0.10605263  0.59789474  0.50000000 1
    -0.10263158  0.59473684  0.50000000 1
    -0.09921053  0.59157895  0.50000000 1
    -0.09578947  0.58842105  0.50000000 1
    -0.09236842  0.58526316  0.50000000 1
    -0.08894737  0.58210526  0.50000000 1
    -0.08552632  0.57894737  0.50000000 1
    -0.08210526  0.57578947  0.50000000 1
    -0.07868421  0.57263158  0.50000000 1
    -0.07526316  0.56947368  0.50000000 1
    -0.07184211  0.56631579  0.50000000 1
    -0.06842105  0.56315789  0.50000000 1
    -0.06500000  0.56000000  0.50000000 1
    -0.06157895  0.55684211  0.50000000 1
    -0.05815789  0.55368421  0.50000000 1
    -0.05473684  0.55052632  0.50000000 1
    -0.05131579  0.54736842  0.50000000 1
    -0.04789474  0.54421053  0.50000000 1
    -0.04447368  0.54105263  0.50000000 1
    -0.04105263  0.53789474  0.50000000 1
    -0.03763158  0.53473684  0.50000000 1
    -0.03421053  0.53157895  0.50000000 1
    -0.03078947  0.52842105  0.50000000 1
    -0.02736842  0.52526316  0.50000000 1
    -0.02394737  0.52210526  0.50000000 1
    -0.02052632  0.51894737  0.50000000 1
    -0.01710526  0.51578947  0.50000000 1
    -0.01368421  0.51263158  0.50000000 1
    -0.01026316  0.50947368  0.50000000 1
    -0.00684211  0.50631579  0.50000000 1
    -0.00342105  0.50315789  0.50000000 1
    0.00000000  0.50000000  0.50000000 1
    0.00000000  0.49390244  0.49390244 1
    0.00000000  0.48780488  0.48780488 1
    0.00000000  0.48170732  0.48170732 1
    0.00000000  0.47560976  0.47560976 1
    0.00000000  0.46951220  0.46951220 1
    0.00000000  0.46341463  0.46341463 1
    0.00000000  0.45731707  0.45731707 1
    0.00000000  0.45121951  0.45121951 1
    0.00000000  0.44512195  0.44512195 1
    0.00000000  0.43902439  0.43902439 1
    0.00000000  0.43292683  0.43292683 1
    0.00000000  0.42682927  0.42682927 1
    0.00000000  0.42073171  0.42073171 1
    0.00000000  0.41463415  0.41463415 1
    0.00000000  0.40853659  0.40853659 1
    0.00000000  0.40243902  0.40243902 1
    0.00000000  0.39634146  0.39634146 1
    0.00000000  0.39024390  0.39024390 1
    0.00000000  0.38414634  0.38414634 1
    0.00000000  0.37804878  0.37804878 1
    0.00000000  0.37195122  0.37195122 1
    0.00000000  0.36585366  0.36585366 1
    0.00000000  0.35975610  0.35975610 1
    0.00000000  0.35365854  0.35365854 1
    0.00000000  0.34756098  0.34756098 1
    0.00000000  0.34146341  0.34146341 1
    0.00000000  0.33536585  0.33536585 1
    0.00000000  0.32926829  0.32926829 1
    0.00000000  0.32317073  0.32317073 1
    0.00000000  0.31707317  0.31707317 1
    0.00000000  0.31097561  0.31097561 1
    0.00000000  0.30487805  0.30487805 1
    0.00000000  0.29878049  0.29878049 1
    0.00000000  0.29268293  0.29268293 1
    0.00000000  0.28658537  0.28658537 1
    0.00000000  0.28048780  0.28048780 1
    0.00000000  0.27439024  0.27439024 1
    0.00000000  0.26829268  0.26829268 1
    0.00000000  0.26219512  0.26219512 1
    0.00000000  0.25609756  0.25609756 1
    0.00000000  0.25000000  0.25000000 1
    0.00000000  0.24390244  0.24390244 1
    0.00000000  0.23780488  0.23780488 1
    0.00000000  0.23170732  0.23170732 1
    0.00000000  0.22560976  0.22560976 1
    0.00000000  0.21951220  0.21951220 1
    0.00000000  0.21341463  0.21341463 1
    0.00000000  0.20731707  0.20731707 1
    0.00000000  0.20121951  0.20121951 1
    0.00000000  0.19512195  0.19512195 1
    0.00000000  0.18902439  0.18902439 1
    0.00000000  0.18292683  0.18292683 1
    0.00000000  0.17682927  0.17682927 1
    0.00000000  0.17073171  0.17073171 1
    0.00000000  0.16463415  0.16463415 1
    0.00000000  0.15853659  0.15853659 1
    0.00000000  0.15243902  0.15243902 1
    0.00000000  0.14634146  0.14634146 1
    0.00000000  0.14024390  0.14024390 1
    0.00000000  0.13414634  0.13414634 1
    0.00000000  0.12804878  0.12804878 1
    0.00000000  0.12195122  0.12195122 1
    0.00000000  0.11585366  0.11585366 1
    0.00000000  0.10975610  0.10975610 1
    0.00000000  0.10365854  0.10365854 1
    0.00000000  0.09756098  0.09756098 1
    0.00000000  0.09146341  0.09146341 1
    0.00000000  0.08536585  0.08536585 1
    0.00000000  0.07926829  0.07926829 1
    0.00000000  0.07317073  0.07317073 1
    0.00000000  0.06707317  0.06707317 1
    0.00000000  0.06097561  0.06097561 1
    0.00000000  0.05487805  0.05487805 1
    0.00000000  0.04878049  0.04878049 1
    0.00000000  0.04268293  0.04268293 1
    0.00000000  0.03658537  0.03658537 1
    0.00000000  0.03048780  0.03048780 1
    0.00000000  0.02439024  0.02439024 1
    0.00000000  0.01829268  0.01829268 1
    0.00000000  0.01219512  0.01219512 1
    0.00000000  0.00609756  0.00609756 1
    0.00000000  0.00000000  0.00000000 1
    0.00000000  0.00000000  0.01428571 1
    0.00000000  0.00000000  0.02857143 1
    0.00000000  0.00000000  0.04285714 1
    0.00000000  0.00000000  0.05714286 1
    0.00000000  0.00000000  0.07142857 1
    0.00000000  0.00000000  0.08571429 1
    0.00000000  0.00000000  0.10000000 1
    0.00000000  0.00000000  0.11428571 1
    0.00000000  0.00000000  0.12857143 1
    0.00000000  0.00000000  0.14285714 1
    0.00000000  0.00000000  0.15714286 1
    0.00000000  0.00000000  0.17142857 1
    0.00000000  0.00000000  0.18571429 1
    0.00000000  0.00000000  0.20000000 1
    0.00000000  0.00000000  0.21428571 1
    0.00000000  0.00000000  0.22857143 1
    0.00000000  0.00000000  0.24285714 1
    0.00000000  0.00000000  0.25714286 1
    0.00000000  0.00000000  0.27142857 1
    0.00000000  0.00000000  0.28571429 1
    0.00000000  0.00000000  0.30000000 1
    0.00000000  0.00000000  0.31428571 1
    0.00000000  0.00000000  0.32857143 1
    0.00000000  0.00000000  0.34285714 1
    0.00000000  0.00000000  0.35714286 1
    0.00000000  0.00000000  0.37142857 1
    0.00000000  0.00000000  0.38571429 1
    0.00000000  0.00000000  0.40000000 1
    0.00000000  0.00000000  0.41428571 1
    0.00000000  0.00000000  0.42857143 1
    0.00000000  0.00000000  0.44285714 1
    0.00000000  0.00000000  0.45714286 1
    0.00000000  0.00000000  0.47142857 1
    0.00000000  0.00000000  0.48571429 1
    0.00000000  0.00000000  0.50000000 1
