&CONTROL
  calculation = 'bands',
  prefix = 'hea',
  pseudo_dir = '../../pseudo/',
  verbosity = 'low',
/
&SYSTEM
  degauss = 0.15,
  ecutrho = 340.0,
  ecutwfc = 85.0,
  ibrav = 0,
  nbnd = 200,
  nosym = .FALSE.,
  occupations = 'smearing',
  smearing = 'gauss',
  nat = 20,
  ntyp = 5,
/
&ELECTRONS
  conv_thr = 1d-10,
  electron_maxstep = 80,
  mixing_beta = 0.7,
  mixing_mode = 'local-TF',
/
&IONS
/
&CELL
/
ATOMIC_SPECIES
  Hf  178.4900 Hf.upf
  Nb  92.9064 Nb.upf
  Ta  180.9479 Ta.upf
  Ti  47.8670 Ti.upf
  Zr  91.2240 Zr.upf
ATOMIC_POSITIONS crystal
  Hf 0.603255080300 0.603255079700 0.892911845400
  Hf 0.395060907600 0.395060907500 0.846148783000
  Zr 0.601486015600 0.601486015600 0.153873092500
  Zr 0.804063517800 0.804063517500 0.456170707600
  Ta 0.804655230000 0.804655229400 0.193865191600
  Ta 0.397417337800 0.397417337800 0.107416661200
  Ta 0.596139084500 0.596139084800 0.403164267500
  Ta 0.204347784100 0.204347784400 0.306768651700
  Ta 0.001549247300 0.001549247400 0.249698708500
  Ta -0.008794918600 -0.008794918700 0.747494673700
  Ta 0.805933763300 0.805933763600 0.950113419700
  Ti 0.407860271000 0.407860270800 0.597911950900
  Ti 0.201967442300 0.201967442200 0.056825738700
  Nb 0.791022125200 0.791022125500 0.696094719400
  Nb -0.000087174100 -0.000087173900 0.001088622000
  Nb 0.002924009900 0.002924010000 0.499806452200
  Nb 0.194384029000 0.194384029100 0.800056335700
  Nb 0.398088658700 0.398088659200 0.345844865800
  Nb 0.198094831900 0.198094831800 0.549273271200
  Nb 0.600632756600 0.600632756400 0.645472041800
CELL_PARAMETERS angstrom
      7.2764127790      0.0084010660     -3.8877287890
      5.7223781300      4.4945124340     -3.8877287880
     -0.0279930810     -0.0096970870     11.6109897330
K_POINTS crystal
426
    0.00000000  0.00000000  0.00000000 1
    0.00000000  0.00724638  0.00000000 1
    0.00000000  0.01449275  0.00000000 1
    0.00000000  0.02173913  0.00000000 1
    0.00000000  0.02898551  0.00000000 1
    0.00000000  0.03623188  0.00000000 1
    0.00000000  0.04347826  0.00000000 1
    0.00000000  0.05072464  0.00000000 1
    0.00000000  0.05797101  0.00000000 1
    0.00000000  0.06521739  0.00000000 1
    0.00000000  0.07246377  0.00000000 1
    0.00000000  0.07971014  0.00000000 1
    0.00000000  0.08695652  0.00000000 1
    0.00000000  0.09420290  0.00000000 1
    0.00000000  0.10144928  0.00000000 1
    0.00000000  0.10869565  0.00000000 1
    0.00000000  0.11594203  0.00000000 1
    0.00000000  0.12318841  0.00000000 1
    0.00000000  0.13043478  0.00000000 1
    0.00000000  0.13768116  0.00000000 1
    0.00000000  0.14492754  0.00000000 1
    0.00000000  0.15217391  0.00000000 1
    0.00000000  0.15942029  0.00000000 1
    0.00000000  0.16666667  0.00000000 1
    0.00000000  0.17391304  0.00000000 1
    0.00000000  0.18115942  0.00000000 1
    0.00000000  0.18840580  0.00000000 1
    0.00000000  0.19565217  0.00000000 1
    0.00000000  0.20289855  0.00000000 1
    0.00000000  0.21014493  0.00000000 1
    0.00000000  0.21739130  0.00000000 1
    0.00000000  0.22463768  0.00000000 1
    0.00000000  0.23188406  0.00000000 1
    0.00000000  0.23913043  0.00000000 1
    0.00000000  0.24637681  0.00000000 1
    0.00000000  0.25362319  0.00000000 1
    0.00000000  0.26086957  0.00000000 1
    0.00000000  0.26811594  0.00000000 1
    0.00000000  0.27536232  0.00000000 1
    0.00000000  0.28260870  0.00000000 1
    0.00000000  0.28985507  0.00000000 1
    0.00000000  0.29710145  0.00000000 1
    0.00000000  0.30434783  0.00000000 1
    0.00000000  0.31159420  0.00000000 1
    0.00000000  0.31884058  0.00000000 1
    0.00000000  0.32608696  0.00000000 1
    0.00000000  0.33333333  0.00000000 1
    0.00000000  0.34057971  0.00000000 1
    0.00000000  0.34782609  0.00000000 1
    0.00000000  0.35507246  0.00000000 1
    0.00000000  0.36231884  0.00000000 1
    0.00000000  0.36956522  0.00000000 1
    0.00000000  0.37681159  0.00000000 1
    0.00000000  0.38405797  0.00000000 1
    0.00000000  0.39130435  0.00000000 1
    0.00000000  0.39855072  0.00000000 1
    0.00000000  0.40579710  0.00000000 1
    0.00000000  0.41304348  0.00000000 1
    0.00000000  0.42028986  0.00000000 1
    0.00000000  0.42753623  0.00000000 1
    0.00000000  0.43478261  0.00000000 1
    0.00000000  0.44202899  0.00000000 1
    0.00000000  0.44927536  0.00000000 1
    0.00000000  0.45652174  0.00000000 1
    0.00000000  0.46376812  0.00000000 1
    0.00000000  0.47101449  0.00000000 1
    0.00000000  0.47826087  0.00000000 1
    0.00000000  0.48550725  0.00000000 1
    0.00000000  0.49275362  0.00000000 1
    0.00000000  0.50000000  0.00000000 1
    -0.00430769  0.50338462  0.00000000 1
    -0.00861538  0.50676923  0.00000000 1
    -0.01292308  0.51015385  0.00000000 1
    -0.01723077  0.51353846  0.00000000 1
    -0.02153846  0.51692308  0.00000000 1
    -0.02584615  0.52030769  0.00000000 1
    -0.03015385  0.52369231  0.00000000 1
    -0.03446154  0.52707692  0.00000000 1
    -0.03876923  0.53046154  0.00000000 1
    -0.04307692  0.53384615  0.00000000 1
    -0.04738462  0.53723077  0.00000000 1
    -0.05169231  0.54061538  0.00000000 1
    -0.05600000  0.54400000  0.00000000 1
    -0.06030769  0.54738462  0.00000000 1
    -0.06461538  0.55076923  0.00000000 1
    -0.06892308  0.55415385  0.00000000 1
    -0.07323077  0.55753846  0.00000000 1
    -0.07753846  0.56092308  0.00000000 1
    -0.08184615  0.56430769  0.00000000 1
    -0.08615385  0.56769231  0.00000000 1
    -0.09046154  0.57107692  0.00000000 1
    -0.09476923  0.57446154  0.00000000 1
    -0.09907692  0.57784615  0.00000000 1
    -0.10338462  0.58123077  0.00000000 1
    -0.10769231  0.58461538  0.00000000 1
    -0.11200000  0.58800000  0.00000000 1
    -0.11630769  0.59138462  0.00000000 1
    -0.12061538  0.59476923  0.00000000 1
    -0.12492308  0.59815385  0.00000000 1
    -0.12923077  0.60153846  0.00000000 1
    -0.13353846  0.60492308  0.00000000 1
    -0.13784615  0.60830769  0.00000000 1
    -0.14215385  0.61169231  0.00000000 1
    -0.14646154  0.61507692  0.00000000 1
    -0.15076923  0.61846154  0.00000000 1
    -0.15507692  0.62184615  0.00000000 1
    -0.15938462  0.62523077  0.00000000 1
    -0.16369231  0.62861538  0.00000000 1
    -0.16800000  0.63200000  0.00000000 1
    -0.17230769  0.63538462  0.00000000 1
    -0.17661538  0.63876923  0.00000000 1
    -0.18092308  0.64215385  0.00000000 1
    -0.18523077  0.64553846  0.00000000 1
    -0.18953846  0.64892308  0.00000000 1
    -0.19384615  0.65230769  0.00000000 1
    -0.19815385  0.65569231  0.00000000 1
    -0.20246154  0.65907692  0.00000000 1
    -0.20676923  0.66246154  0.00000000 1
    -0.21107692  0.66584615  0.00000000 1
    -0.21538462  0.66923077  0.00000000 1
    -0.21969231  0.67261538  0.00000000 1
    -0.22400000  0.67600000  0.00000000 1
    -0.22830769  0.67938462  0.00000000 1
    -0.23261538  0.68276923  0.00000000 1
    -0.23692308  0.68615385  0.00000000 1
    -0.24123077  0.68953846  0.00000000 1
    -0.24553846  0.69292308  0.00000000 1
    -0.24984615  0.69630769  0.00000000 1
    -0.25415385  0.69969231  0.00000000 1
    -0.25846154  0.70307692  0.00000000 1
    -0.26276923  0.70646154  0.00000000 1
    -0.26707692  0.70984615  0.00000000 1
    -0.27138462  0.71323077  0.00000000 1
    -0.27569231  0.71661538  0.00000000 1
    -0.28000000  0.72000000  0.00000000 1
    -0.29157895  0.70842105  0.00000000 1
    -0.30315789  0.69684211  0.00000000 1
    -0.31473684  0.68526316  0.00000000 1
    -0.32631579  0.67368421  0.00000000 1
    -0.33789474  0.66210526  0.00000000 1
    -0.34947368  0.65052632  0.00000000 1
    -0.36105263  0.63894737  0.00000000 1
    -0.37263158  0.62736842  0.00000000 1
    -0.38421053  0.61578947  0.00000000 1
    -0.39578947  0.60421053  0.00000000 1
    -0.40736842  0.59263158  0.00000000 1
    -0.41894737  0.58105263  0.00000000 1
    -0.43052632  0.56947368  0.00000000 1
    -0.44210526  0.55789474  0.00000000 1
    -0.45368421  0.54631579  0.00000000 1
    -0.46526316  0.53473684  0.00000000 1
    -0.47684211  0.52315789  0.00000000 1
    -0.48842105  0.51157895  0.00000000 1
    -0.50000000  0.50000000  0.00000000 1
    -0.48888889  0.48888889  0.00000000 1
    -0.47777778  0.47777778  0.00000000 1
    -0.46666667  0.46666667  0.00000000 1
    -0.45555556  0.45555556  0.00000000 1
    -0.44444444  0.44444444  0.00000000 1
    -0.43333333  0.43333333  0.00000000 1
    -0.42222222  0.42222222  0.00000000 1
    -0.41111111  0.41111111  0.00000000 1
    -0.40000000  0.40000000  0.00000000 1
    -0.38888889  0.38888889  0.00000000 1
    -0.37777778  0.37777778  0.00000000 1
    -0.36666667  0.36666667  0.00000000 1
    -0.35555556  0.35555556  0.00000000 1
    -0.34444444  0.34444444  0.00000000 1
    -0.33333333  0.33333333  0.00000000 1
    -0.32222222  0.32222222  0.00000000 1
    -0.31111111  0.31111111  0.00000000 1
    -0.30000000  0.30000000  0.00000000 1
    -0.28888889  0.28888889  0.00000000 1
    -0.27777778  0.27777778  0.00000000 1
    -0.26666667  0.26666667  0.00000000 1
    -0.25555556  0.25555556  0.00000000 1
    -0.24444444  0.24444444  0.00000000 1
    -0.23333333  0.23333333  0.00000000 1
    -0.22222222  0.22222222  0.00000000 1
    -0.21111111  0.21111111  0.00000000 1
    -0.20000000  0.20000000  0.00000000 1
    -0.18888889  0.18888889  0.00000000 1
    -0.17777778  0.17777778  0.00000000 1
    -0.16666667  0.16666667  0.00000000 1
    -0.15555556  0.15555556  0.00000000 1
    -0.14444444  0.14444444  0.00000000 1
    -0.13333333  0.13333333  0.00000000 1
    -0.12222222  0.12222222  0.00000000 1
    -0.11111111  0.11111111  0.00000000 1
    -0.10000000  0.10000000  0.00000000 1
    -0.08888889  0.08888889  0.00000000 1
    -0.07777778  0.07777778  0.00000000 1
    -0.06666667  0.06666667  0.00000000 1
    -0.05555556  0.05555556  0.00000000 1
    -0.04444444  0.04444444  0.00000000 1
    -0.03333333  0.03333333  0.00000000 1
    -0.02222222  0.02222222  0.00000000 1
    -0.01111111  0.01111111  0.00000000 1
    0.00000000  0.00000000  0.00000000 1
    -0.01250000  0.01250000  0.01250000 1
    -0.02500000  0.02500000  0.02500000 1
    -0.03750000  0.03750000  0.03750000 1
    -0.05000000  0.05000000  0.05000000 1
    -0.06250000  0.06250000  0.06250000 1
    -0.07500000  0.07500000  0.07500000 1
    -0.08750000  0.08750000  0.08750000 1
    -0.10000000  0.10000000  0.10000000 1
    -0.11250000  0.11250000  0.11250000 1
    -0.12500000  0.12500000  0.12500000 1
    -0.13750000  0.13750000  0.13750000 1
    -0.15000000  0.15000000  0.15000000 1
    -0.16250000  0.16250000  0.16250000 1
    -0.17500000  0.17500000  0.17500000 1
    -0.18750000  0.18750000  0.18750000 1
    -0.20000000  0.20000000  0.20000000 1
    -0.21250000  0.21250000  0.21250000 1
    -0.22500000  0.22500000  0.22500000 1
    -0.23750000  0.23750000  0.23750000 1
    -0.25000000  0.25000000  0.25000000 1
    -0.26250000  0.26250000  0.26250000 1
    -0.27500000  0.27500000  0.27500000 1
    -0.28750000  0.28750000  0.28750000 1
    -0.30000000  0.30000000  0.30000000 1
    -0.31250000  0.31250000  0.31250000 1
    -0.32500000  0.32500000  0.32500000 1
    -0.33750000  0.33750000  0.33750000 1
    -0.35000000  0.35000000  0.35000000 1
    -0.36250000  0.36250000  0.36250000 1
    -0.37500000  0.37500000  0.37500000 1
    -0.38750000  0.38750000  0.38750000 1
    -0.40000000  0.40000000  0.40000000 1
    -0.41250000  0.41250000  0.41250000 1
    -0.42500000  0.42500000  0.42500000 1
    -0.43750000  0.43750000  0.43750000 1
    -0.45000000  0.45000000  0.45000000 1
    -0.46250000  0.46250000  0.46250000 1
    -0.47500000  0.47500000  0.47500000 1
    -0.48750000  0.48750000  0.48750000 1
    -0.50000000  0.50000000  0.50000000 1
    -0.48857143  0.51142857  0.50000000 1
    -0.47714286  0.52285714  0.50000000 1
    -0.46571429  0.53428571  0.50000000 1
    -0.45428571  0.54571429  0.50000000 1
    -0.44285714  0.55714286  0.50000000 1
    -0.43142857  0.56857143  0.50000000 1
    -0.42000000  0.58000000  0.50000000 1
    -0.40857143  0.59142857  0.50000000 1
    -0.39714286  0.60285714  0.50000000 1
    -0.38571429  0.61428571  0.50000000 1
    -0.37428571  0.62571429  0.50000000 1
    -0.36285714  0.63714286  0.50000000 1
    -0.35142857  0.64857143  0.50000000 1
    -0.34000000  0.66000000  0.50000000 1
    -0.32857143  0.67142857  0.50000000 1
    -0.31714286  0.68285714  0.50000000 1
    -0.30571429  0.69428571  0.50000000 1
    -0.29428571  0.70571429  0.50000000 1
    -0.28285714  0.71714286  0.50000000 1
    -0.27142857  0.72857143  0.50000000 1
    -0.26000000  0.74000000  0.50000000 1
    -0.25600000  0.73630769  0.50000000 1
    -0.25200000  0.73261538  0.50000000 1
    -0.24800000  0.72892308  0.50000000 1
    -0.24400000  0.72523077  0.50000000 1
    -0.24000000  0.72153846  0.50000000 1
    -0.23600000  0.71784615  0.50000000 1
    -0.23200000  0.71415385  0.50000000 1
    -0.22800000  0.71046154  0.50000000 1
    -0.22400000  0.70676923  0.50000000 1
    -0.22000000  0.70307692  0.50000000 1
    -0.21600000  0.69938462  0.50000000 1
    -0.21200000  0.69569231  0.50000000 1
    -0.20800000  0.69200000  0.50000000 1
    -0.20400000  0.68830769  0.50000000 1
    -0.20000000  0.68461538  0.50000000 1
    -0.19600000  0.68092308  0.50000000 1
    -0.19200000  0.67723077  0.50000000 1
    -0.18800000  0.67353846  0.50000000 1
    -0.18400000  0.66984615  0.50000000 1
    -0.18000000  0.66615385  0.50000000 1
    -0.17600000  0.66246154  0.50000000 1
    -0.17200000  0.65876923  0.50000000 1
    -0.16800000  0.65507692  0.50000000 1
    -0.16400000  0.65138462  0.50000000 1
    -0.16000000  0.64769231  0.50000000 1
    -0.15600000  0.64400000  0.50000000 1
    -0.15200000  0.64030769  0.50000000 1
    -0.14800000  0.63661538  0.50000000 1
    -0.14400000  0.63292308  0.50000000 1
    -0.14000000  0.62923077  0.50000000 1
    -0.13600000  0.62553846  0.50000000 1
    -0.13200000  0.62184615  0.50000000 1
    -0.12800000  0.61815385  0.50000000 1
    -0.12400000  0.61446154  0.50000000 1
    -0.12000000  0.61076923  0.50000000 1
    -0.11600000  0.60707692  0.50000000 1
    -0.11200000  0.60338462  0.50000000 1
    -0.10800000  0.59969231  0.50000000 1
    -0.10400000  0.59600000  0.50000000 1
    -0.10000000  0.59230769  0.50000000 1
    -0.09600000  0.58861538  0.50000000 1
    -0.09200000  0.58492308  0.50000000 1
    -0.08800000  0.58123077  0.50000000 1
    -0.08400000  0.57753846  0.50000000 1
    -0.08000000  0.57384615  0.50000000 1
    -0.07600000  0.57015385  0.50000000 1
    -0.07200000  0.56646154  0.50000000 1
    -0.06800000  0.56276923  0.50000000 1
    -0.06400000  0.55907692  0.50000000 1
    -0.06000000  0.55538462  0.50000000 1
    -0.05600000  0.55169231  0.50000000 1
    -0.05200000  0.54800000  0.50000000 1
    -0.04800000  0.54430769  0.50000000 1
    -0.04400000  0.54061538  0.50000000 1
    -0.04000000  0.53692308  0.50000000 1
    -0.03600000  0.53323077  0.50000000 1
    -0.03200000  0.52953846  0.50000000 1
    -0.02800000  0.52584615  0.50000000 1
    -0.02400000  0.52215385  0.50000000 1
    -0.02000000  0.51846154  0.50000000 1
    -0.01600000  0.51476923  0.50000000 1
    -0.01200000  0.51107692  0.50000000 1
    -0.00800000  0.50738462  0.50000000 1
    -0.00400000  0.50369231  0.50000000 1
    0.00000000  0.50000000  0.50000000 1
    0.00000000  0.49295775  0.49295775 1
    0.00000000  0.48591549  0.48591549 1
    0.00000000  0.47887324  0.47887324 1
    0.00000000  0.47183099  0.47183099 1
    0.00000000  0.46478873  0.46478873 1
    0.00000000  0.45774648  0.45774648 1
    0.00000000  0.45070423  0.45070423 1
    0.00000000  0.44366197  0.44366197 1
    0.00000000  0.43661972  0.43661972 1
    0.00000000  0.42957746  0.42957746 1
    0.00000000  0.42253521  0.42253521 1
    0.00000000  0.41549296  0.41549296 1
    0.00000000  0.40845070  0.40845070 1
    0.00000000  0.40140845  0.40140845 1
    0.00000000  0.39436620  0.39436620 1
    0.00000000  0.38732394  0.38732394 1
    0.00000000  0.38028169  0.38028169 1
    0.00000000  0.37323944  0.37323944 1
    0.00000000  0.36619718  0.36619718 1
    0.00000000  0.35915493  0.35915493 1
    0.00000000  0.35211268  0.35211268 1
    0.00000000  0.34507042  0.34507042 1
    0.00000000  0.33802817  0.33802817 1
    0.00000000  0.33098592  0.33098592 1
    0.00000000  0.32394366  0.32394366 1
    0.00000000  0.31690141  0.31690141 1
    0.00000000  0.30985915  0.30985915 1
    0.00000000  0.30281690  0.30281690 1
    0.00000000  0.29577465  0.29577465 1
    0.00000000  0.28873239  0.28873239 1
    0.00000000  0.28169014  0.28169014 1
    0.00000000  0.27464789  0.27464789 1
    0.00000000  0.26760563  0.26760563 1
    0.00000000  0.26056338  0.26056338 1
    0.00000000  0.25352113  0.25352113 1
    0.00000000  0.24647887  0.24647887 1
    0.00000000  0.23943662  0.23943662 1
    0.00000000  0.23239437  0.23239437 1
    0.00000000  0.22535211  0.22535211 1
    0.00000000  0.21830986  0.21830986 1
    0.00000000  0.21126761  0.21126761 1
    0.00000000  0.20422535  0.20422535 1
    0.00000000  0.19718310  0.19718310 1
    0.00000000  0.19014085  0.19014085 1
    0.00000000  0.18309859  0.18309859 1
    0.00000000  0.17605634  0.17605634 1
    0.00000000  0.16901408  0.16901408 1
    0.00000000  0.16197183  0.16197183 1
    0.00000000  0.15492958  0.15492958 1
    0.00000000  0.14788732  0.14788732 1
    0.00000000  0.14084507  0.14084507 1
    0.00000000  0.13380282  0.13380282 1
    0.00000000  0.12676056  0.12676056 1
    0.00000000  0.11971831  0.11971831 1
    0.00000000  0.11267606  0.11267606 1
    0.00000000  0.10563380  0.10563380 1
    0.00000000  0.09859155  0.09859155 1
    0.00000000  0.09154930  0.09154930 1
    0.00000000  0.08450704  0.08450704 1
    0.00000000  0.07746479  0.07746479 1
    0.00000000  0.07042254  0.07042254 1
    0.00000000  0.06338028  0.06338028 1
    0.00000000  0.05633803  0.05633803 1
    0.00000000  0.04929577  0.04929577 1
    0.00000000  0.04225352  0.04225352 1
    0.00000000  0.03521127  0.03521127 1
    0.00000000  0.02816901  0.02816901 1
    0.00000000  0.02112676  0.02112676 1
    0.00000000  0.01408451  0.01408451 1
    0.00000000  0.00704225  0.00704225 1
    0.00000000  0.00000000  0.00000000 1
    0.00000000  0.00000000  0.01666667 1
    0.00000000  0.00000000  0.03333333 1
    0.00000000  0.00000000  0.05000000 1
    0.00000000  0.00000000  0.06666667 1
    0.00000000  0.00000000  0.08333333 1
    0.00000000  0.00000000  0.10000000 1
    0.00000000  0.00000000  0.11666667 1
    0.00000000  0.00000000  0.13333333 1
    0.00000000  0.00000000  0.15000000 1
    0.00000000  0.00000000  0.16666667 1
    0.00000000  0.00000000  0.18333333 1
    0.00000000  0.00000000  0.20000000 1
    0.00000000  0.00000000  0.21666667 1
    0.00000000  0.00000000  0.23333333 1
    0.00000000  0.00000000  0.25000000 1
    0.00000000  0.00000000  0.26666667 1
    0.00000000  0.00000000  0.28333333 1
    0.00000000  0.00000000  0.30000000 1
    0.00000000  0.00000000  0.31666667 1
    0.00000000  0.00000000  0.33333333 1
    0.00000000  0.00000000  0.35000000 1
    0.00000000  0.00000000  0.36666667 1
    0.00000000  0.00000000  0.38333333 1
    0.00000000  0.00000000  0.40000000 1
    0.00000000  0.00000000  0.41666667 1
    0.00000000  0.00000000  0.43333333 1
    0.00000000  0.00000000  0.45000000 1
    0.00000000  0.00000000  0.46666667 1
    0.00000000  0.00000000  0.48333333 1
    0.00000000  0.00000000  0.50000000 1
