&input
 fildyn='nbti.dyn',
 zasr='simple',
 flfrc='nbti.777.fc',
/
