&input
 fildyn='nbti.dyn',
 zasr='simple',
 flfrc='nbti.666.fc',
/
