&CONTROL
  calculation = 'bands',
  prefix = 'nbti',
  pseudo_dir = '../../pseudo/',
  verbosity = 'low',
/
&SYSTEM
  degauss = 0.015,
  ecutrho = 340.0,
  ecutwfc = 85.0,
  ibrav = 0,
  nosym = .FALSE.,
  occupations = 'smearing',
  smearing = 'gauss',
  nat = 16,
  ntyp = 2,
  nbnd = 200,
/
&ELECTRONS
  conv_thr = 1d-10,
  electron_maxstep = 80,
  mixing_beta = 0.5,
  mixing_mode = 'local-TF',
/
&IONS
/
&CELL
/
ATOMIC_SPECIES
  Nb  92.9064 Nb.upf
  Ti  47.8670 Ti.upf
ATOMIC_POSITIONS crystal
  Ti 0.255646417100 0.744353583000 0.750032215500
  Ti 0.494353582900 0.505646417000 0.499967784500
  Ti 0.264650443600 0.735349556500 0.247446387200
  Ti 0.485349556400 0.514650443500 0.002553612800
  Ti 0.227034585000 0.227185440600 0.247951627900
  Ti -0.022814559400 0.477034585100 0.002048372200
  Ti 0.522965415000 0.022814559400 0.002048372100
  Ti 0.772814559400 0.772965414900 0.247951627800
  Nb 0.745439633300 0.254560366800 0.745276607500
  Nb 0.738838738100 0.261161261600 0.256142696900
  Nb 0.004560366700 -0.004560366800 0.504723392500
  Nb 0.011161261900 -0.011161261600 -0.006142696900
  Nb -0.003800361700 0.497822892800 0.496110853800
  Nb 0.502177107100 0.003800361600 0.496110853800
  Nb 0.247822892900 0.246199638400 0.753889146200
  Nb 0.753800361700 0.752177107200 0.753889146200
CELL_PARAMETERS angstrom
      5.7237219290      0.0199413440     -0.0106155540
     -1.8891065590      5.4030238560      0.0106155540
     -0.0176154380      0.0124559950      9.1465983050
K_POINTS crystal
343
    -0.37500000  0.37500000  0.00000000 1
    -0.38281250  0.38281250  0.00000000 1
    -0.39062500  0.39062500  0.00000000 1
    -0.39843750  0.39843750  0.00000000 1
    -0.40625000  0.40625000  0.00000000 1
    -0.41406250  0.41406250  0.00000000 1
    -0.42187500  0.42187500  0.00000000 1
    -0.42968750  0.42968750  0.00000000 1
    -0.43750000  0.43750000  0.00000000 1
    -0.44531250  0.44531250  0.00000000 1
    -0.45312500  0.45312500  0.00000000 1
    -0.46093750  0.46093750  0.00000000 1
    -0.46875000  0.46875000  0.00000000 1
    -0.47656250  0.47656250  0.00000000 1
    -0.48437500  0.48437500  0.00000000 1
    -0.49218750  0.49218750  0.00000000 1
    -0.50000000  0.50000000  0.00000000 1
    -0.49242424  0.49242424  0.00000000 1
    -0.48484848  0.48484848  0.00000000 1
    -0.47727273  0.47727273  0.00000000 1
    -0.46969697  0.46969697  0.00000000 1
    -0.46212121  0.46212121  0.00000000 1
    -0.45454545  0.45454545  0.00000000 1
    -0.44696970  0.44696970  0.00000000 1
    -0.43939394  0.43939394  0.00000000 1
    -0.43181818  0.43181818  0.00000000 1
    -0.42424242  0.42424242  0.00000000 1
    -0.41666667  0.41666667  0.00000000 1
    -0.40909091  0.40909091  0.00000000 1
    -0.40151515  0.40151515  0.00000000 1
    -0.39393939  0.39393939  0.00000000 1
    -0.38636364  0.38636364  0.00000000 1
    -0.37878788  0.37878788  0.00000000 1
    -0.37121212  0.37121212  0.00000000 1
    -0.36363636  0.36363636  0.00000000 1
    -0.35606061  0.35606061  0.00000000 1
    -0.34848485  0.34848485  0.00000000 1
    -0.34090909  0.34090909  0.00000000 1
    -0.33333333  0.33333333  0.00000000 1
    -0.32575758  0.32575758  0.00000000 1
    -0.31818182  0.31818182  0.00000000 1
    -0.31060606  0.31060606  0.00000000 1
    -0.30303030  0.30303030  0.00000000 1
    -0.29545455  0.29545455  0.00000000 1
    -0.28787879  0.28787879  0.00000000 1
    -0.28030303  0.28030303  0.00000000 1
    -0.27272727  0.27272727  0.00000000 1
    -0.26515152  0.26515152  0.00000000 1
    -0.25757576  0.25757576  0.00000000 1
    -0.25000000  0.25000000  0.00000000 1
    -0.24242424  0.24242424  0.00000000 1
    -0.23484848  0.23484848  0.00000000 1
    -0.22727273  0.22727273  0.00000000 1
    -0.21969697  0.21969697  0.00000000 1
    -0.21212121  0.21212121  0.00000000 1
    -0.20454545  0.20454545  0.00000000 1
    -0.19696970  0.19696970  0.00000000 1
    -0.18939394  0.18939394  0.00000000 1
    -0.18181818  0.18181818  0.00000000 1
    -0.17424242  0.17424242  0.00000000 1
    -0.16666667  0.16666667  0.00000000 1
    -0.15909091  0.15909091  0.00000000 1
    -0.15151515  0.15151515  0.00000000 1
    -0.14393939  0.14393939  0.00000000 1
    -0.13636364  0.13636364  0.00000000 1
    -0.12878788  0.12878788  0.00000000 1
    -0.12121212  0.12121212  0.00000000 1
    -0.11363636  0.11363636  0.00000000 1
    -0.10606061  0.10606061  0.00000000 1
    -0.09848485  0.09848485  0.00000000 1
    -0.09090909  0.09090909  0.00000000 1
    -0.08333333  0.08333333  0.00000000 1
    -0.07575758  0.07575758  0.00000000 1
    -0.06818182  0.06818182  0.00000000 1
    -0.06060606  0.06060606  0.00000000 1
    -0.05303030  0.05303030  0.00000000 1
    -0.04545455  0.04545455  0.00000000 1
    -0.03787879  0.03787879  0.00000000 1
    -0.03030303  0.03030303  0.00000000 1
    -0.02272727  0.02272727  0.00000000 1
    -0.01515152  0.01515152  0.00000000 1
    -0.00757576  0.00757576  0.00000000 1
    0.00000000  0.00000000  0.00000000 1
    -0.00675676  0.00675676  0.00675676 1
    -0.01351351  0.01351351  0.01351351 1
    -0.02027027  0.02027027  0.02027027 1
    -0.02702703  0.02702703  0.02702703 1
    -0.03378378  0.03378378  0.03378378 1
    -0.04054054  0.04054054  0.04054054 1
    -0.04729730  0.04729730  0.04729730 1
    -0.05405405  0.05405405  0.05405405 1
    -0.06081081  0.06081081  0.06081081 1
    -0.06756757  0.06756757  0.06756757 1
    -0.07432432  0.07432432  0.07432432 1
    -0.08108108  0.08108108  0.08108108 1
    -0.08783784  0.08783784  0.08783784 1
    -0.09459459  0.09459459  0.09459459 1
    -0.10135135  0.10135135  0.10135135 1
    -0.10810811  0.10810811  0.10810811 1
    -0.11486486  0.11486486  0.11486486 1
    -0.12162162  0.12162162  0.12162162 1
    -0.12837838  0.12837838  0.12837838 1
    -0.13513514  0.13513514  0.13513514 1
    -0.14189189  0.14189189  0.14189189 1
    -0.14864865  0.14864865  0.14864865 1
    -0.15540541  0.15540541  0.15540541 1
    -0.16216216  0.16216216  0.16216216 1
    -0.16891892  0.16891892  0.16891892 1
    -0.17567568  0.17567568  0.17567568 1
    -0.18243243  0.18243243  0.18243243 1
    -0.18918919  0.18918919  0.18918919 1
    -0.19594595  0.19594595  0.19594595 1
    -0.20270270  0.20270270  0.20270270 1
    -0.20945946  0.20945946  0.20945946 1
    -0.21621622  0.21621622  0.21621622 1
    -0.22297297  0.22297297  0.22297297 1
    -0.22972973  0.22972973  0.22972973 1
    -0.23648649  0.23648649  0.23648649 1
    -0.24324324  0.24324324  0.24324324 1
    -0.25000000  0.25000000  0.25000000 1
    -0.25675676  0.25675676  0.25675676 1
    -0.26351351  0.26351351  0.26351351 1
    -0.27027027  0.27027027  0.27027027 1
    -0.27702703  0.27702703  0.27702703 1
    -0.28378378  0.28378378  0.28378378 1
    -0.29054054  0.29054054  0.29054054 1
    -0.29729730  0.29729730  0.29729730 1
    -0.30405405  0.30405405  0.30405405 1
    -0.31081081  0.31081081  0.31081081 1
    -0.31756757  0.31756757  0.31756757 1
    -0.32432432  0.32432432  0.32432432 1
    -0.33108108  0.33108108  0.33108108 1
    -0.33783784  0.33783784  0.33783784 1
    -0.34459459  0.34459459  0.34459459 1
    -0.35135135  0.35135135  0.35135135 1
    -0.35810811  0.35810811  0.35810811 1
    -0.36486486  0.36486486  0.36486486 1
    -0.37162162  0.37162162  0.37162162 1
    -0.37837838  0.37837838  0.37837838 1
    -0.38513514  0.38513514  0.38513514 1
    -0.39189189  0.39189189  0.39189189 1
    -0.39864865  0.39864865  0.39864865 1
    -0.40540541  0.40540541  0.40540541 1
    -0.41216216  0.41216216  0.41216216 1
    -0.41891892  0.41891892  0.41891892 1
    -0.42567568  0.42567568  0.42567568 1
    -0.43243243  0.43243243  0.43243243 1
    -0.43918919  0.43918919  0.43918919 1
    -0.44594595  0.44594595  0.44594595 1
    -0.45270270  0.45270270  0.45270270 1
    -0.45945946  0.45945946  0.45945946 1
    -0.46621622  0.46621622  0.46621622 1
    -0.47297297  0.47297297  0.47297297 1
    -0.47972973  0.47972973  0.47972973 1
    -0.48648649  0.48648649  0.48648649 1
    -0.49324324  0.49324324  0.49324324 1
    -0.50000000  0.50000000  0.50000000 1
    -0.49456522  0.50543478  0.50000000 1
    -0.48913043  0.51086957  0.50000000 1
    -0.48369565  0.51630435  0.50000000 1
    -0.47826087  0.52173913  0.50000000 1
    -0.47282609  0.52717391  0.50000000 1
    -0.46739130  0.53260870  0.50000000 1
    -0.46195652  0.53804348  0.50000000 1
    -0.45652174  0.54347826  0.50000000 1
    -0.45108696  0.54891304  0.50000000 1
    -0.44565217  0.55434783  0.50000000 1
    -0.44021739  0.55978261  0.50000000 1
    -0.43478261  0.56521739  0.50000000 1
    -0.42934783  0.57065217  0.50000000 1
    -0.42391304  0.57608696  0.50000000 1
    -0.41847826  0.58152174  0.50000000 1
    -0.41304348  0.58695652  0.50000000 1
    -0.40760870  0.59239130  0.50000000 1
    -0.40217391  0.59782609  0.50000000 1
    -0.39673913  0.60326087  0.50000000 1
    -0.39130435  0.60869565  0.50000000 1
    -0.38586957  0.61413043  0.50000000 1
    -0.38043478  0.61956522  0.50000000 1
    -0.37500000  0.62500000  0.50000000 1
    -0.36562500  0.62187500  0.50000000 1
    -0.35625000  0.61875000  0.50000000 1
    -0.34687500  0.61562500  0.50000000 1
    -0.33750000  0.61250000  0.50000000 1
    -0.32812500  0.60937500  0.50000000 1
    -0.31875000  0.60625000  0.50000000 1
    -0.30937500  0.60312500  0.50000000 1
    -0.30000000  0.60000000  0.50000000 1
    -0.29062500  0.59687500  0.50000000 1
    -0.28125000  0.59375000  0.50000000 1
    -0.27187500  0.59062500  0.50000000 1
    -0.26250000  0.58750000  0.50000000 1
    -0.25312500  0.58437500  0.50000000 1
    -0.24375000  0.58125000  0.50000000 1
    -0.23437500  0.57812500  0.50000000 1
    -0.22500000  0.57500000  0.50000000 1
    -0.21562500  0.57187500  0.50000000 1
    -0.20625000  0.56875000  0.50000000 1
    -0.19687500  0.56562500  0.50000000 1
    -0.18750000  0.56250000  0.50000000 1
    -0.17812500  0.55937500  0.50000000 1
    -0.16875000  0.55625000  0.50000000 1
    -0.15937500  0.55312500  0.50000000 1
    -0.15000000  0.55000000  0.50000000 1
    -0.14062500  0.54687500  0.50000000 1
    -0.13125000  0.54375000  0.50000000 1
    -0.12187500  0.54062500  0.50000000 1
    -0.11250000  0.53750000  0.50000000 1
    -0.10312500  0.53437500  0.50000000 1
    -0.09375000  0.53125000  0.50000000 1
    -0.08437500  0.52812500  0.50000000 1
    -0.07500000  0.52500000  0.50000000 1
    -0.06562500  0.52187500  0.50000000 1
    -0.05625000  0.51875000  0.50000000 1
    -0.04687500  0.51562500  0.50000000 1
    -0.03750000  0.51250000  0.50000000 1
    -0.02812500  0.50937500  0.50000000 1
    -0.01875000  0.50625000  0.50000000 1
    -0.00937500  0.50312500  0.50000000 1
    0.00000000  0.50000000  0.50000000 1
    0.00000000  0.50000000  0.48484848 1
    0.00000000  0.50000000  0.46969697 1
    0.00000000  0.50000000  0.45454545 1
    0.00000000  0.50000000  0.43939394 1
    0.00000000  0.50000000  0.42424242 1
    0.00000000  0.50000000  0.40909091 1
    0.00000000  0.50000000  0.39393939 1
    0.00000000  0.50000000  0.37878788 1
    0.00000000  0.50000000  0.36363636 1
    0.00000000  0.50000000  0.34848485 1
    0.00000000  0.50000000  0.33333333 1
    0.00000000  0.50000000  0.31818182 1
    0.00000000  0.50000000  0.30303030 1
    0.00000000  0.50000000  0.28787879 1
    0.00000000  0.50000000  0.27272727 1
    0.00000000  0.50000000  0.25757576 1
    0.00000000  0.50000000  0.24242424 1
    0.00000000  0.50000000  0.22727273 1
    0.00000000  0.50000000  0.21212121 1
    0.00000000  0.50000000  0.19696970 1
    0.00000000  0.50000000  0.18181818 1
    0.00000000  0.50000000  0.16666667 1
    0.00000000  0.50000000  0.15151515 1
    0.00000000  0.50000000  0.13636364 1
    0.00000000  0.50000000  0.12121212 1
    0.00000000  0.50000000  0.10606061 1
    0.00000000  0.50000000  0.09090909 1
    0.00000000  0.50000000  0.07575758 1
    0.00000000  0.50000000  0.06060606 1
    0.00000000  0.50000000  0.04545455 1
    0.00000000  0.50000000  0.03030303 1
    0.00000000  0.50000000  0.01515152 1
    0.00000000  0.50000000  0.00000000 1
    0.00000000  0.49122807  0.00000000 1
    0.00000000  0.48245614  0.00000000 1
    0.00000000  0.47368421  0.00000000 1
    0.00000000  0.46491228  0.00000000 1
    0.00000000  0.45614035  0.00000000 1
    0.00000000  0.44736842  0.00000000 1
    0.00000000  0.43859649  0.00000000 1
    0.00000000  0.42982456  0.00000000 1
    0.00000000  0.42105263  0.00000000 1
    0.00000000  0.41228070  0.00000000 1
    0.00000000  0.40350877  0.00000000 1
    0.00000000  0.39473684  0.00000000 1
    0.00000000  0.38596491  0.00000000 1
    0.00000000  0.37719298  0.00000000 1
    0.00000000  0.36842105  0.00000000 1
    0.00000000  0.35964912  0.00000000 1
    0.00000000  0.35087719  0.00000000 1
    0.00000000  0.34210526  0.00000000 1
    0.00000000  0.33333333  0.00000000 1
    0.00000000  0.32456140  0.00000000 1
    0.00000000  0.31578947  0.00000000 1
    0.00000000  0.30701754  0.00000000 1
    0.00000000  0.29824561  0.00000000 1
    0.00000000  0.28947368  0.00000000 1
    0.00000000  0.28070175  0.00000000 1
    0.00000000  0.27192982  0.00000000 1
    0.00000000  0.26315789  0.00000000 1
    0.00000000  0.25438596  0.00000000 1
    0.00000000  0.24561404  0.00000000 1
    0.00000000  0.23684211  0.00000000 1
    0.00000000  0.22807018  0.00000000 1
    0.00000000  0.21929825  0.00000000 1
    0.00000000  0.21052632  0.00000000 1
    0.00000000  0.20175439  0.00000000 1
    0.00000000  0.19298246  0.00000000 1
    0.00000000  0.18421053  0.00000000 1
    0.00000000  0.17543860  0.00000000 1
    0.00000000  0.16666667  0.00000000 1
    0.00000000  0.15789474  0.00000000 1
    0.00000000  0.14912281  0.00000000 1
    0.00000000  0.14035088  0.00000000 1
    0.00000000  0.13157895  0.00000000 1
    0.00000000  0.12280702  0.00000000 1
    0.00000000  0.11403509  0.00000000 1
    0.00000000  0.10526316  0.00000000 1
    0.00000000  0.09649123  0.00000000 1
    0.00000000  0.08771930  0.00000000 1
    0.00000000  0.07894737  0.00000000 1
    0.00000000  0.07017544  0.00000000 1
    0.00000000  0.06140351  0.00000000 1
    0.00000000  0.05263158  0.00000000 1
    0.00000000  0.04385965  0.00000000 1
    0.00000000  0.03508772  0.00000000 1
    0.00000000  0.02631579  0.00000000 1
    0.00000000  0.01754386  0.00000000 1
    0.00000000  0.00877193  0.00000000 1
    0.00000000  0.00000000  0.00000000 1
    0.00000000  0.00000000  0.01515152 1
    0.00000000  0.00000000  0.03030303 1
    0.00000000  0.00000000  0.04545455 1
    0.00000000  0.00000000  0.06060606 1
    0.00000000  0.00000000  0.07575758 1
    0.00000000  0.00000000  0.09090909 1
    0.00000000  0.00000000  0.10606061 1
    0.00000000  0.00000000  0.12121212 1
    0.00000000  0.00000000  0.13636364 1
    0.00000000  0.00000000  0.15151515 1
    0.00000000  0.00000000  0.16666667 1
    0.00000000  0.00000000  0.18181818 1
    0.00000000  0.00000000  0.19696970 1
    0.00000000  0.00000000  0.21212121 1
    0.00000000  0.00000000  0.22727273 1
    0.00000000  0.00000000  0.24242424 1
    0.00000000  0.00000000  0.25757576 1
    0.00000000  0.00000000  0.27272727 1
    0.00000000  0.00000000  0.28787879 1
    0.00000000  0.00000000  0.30303030 1
    0.00000000  0.00000000  0.31818182 1
    0.00000000  0.00000000  0.33333333 1
    0.00000000  0.00000000  0.34848485 1
    0.00000000  0.00000000  0.36363636 1
    0.00000000  0.00000000  0.37878788 1
    0.00000000  0.00000000  0.39393939 1
    0.00000000  0.00000000  0.40909091 1
    0.00000000  0.00000000  0.42424242 1
    0.00000000  0.00000000  0.43939394 1
    0.00000000  0.00000000  0.45454545 1
    0.00000000  0.00000000  0.46969697 1
    0.00000000  0.00000000  0.48484848 1
    0.00000000  0.00000000  0.50000000 1
