&CONTROL
  calculation = 'nscf',
  outdir = './',
  prefix = 'nbti',
  pseudo_dir = '../../pseudo',
/
&SYSTEM
  degauss = 0.015,
  ecutrho = 360.0,
  ecutwfc = 90.0,
  ibrav = 0,
  nbnd = 30,
  nosym = .FALSE.,
  occupations = 'smearing',
  smearing = 'gauss',
  nat = 2,
  ntyp = 2,
/
&ELECTRONS
  conv_thr = 1d-10,
  electron_maxstep = 40,
  mixing_beta = 0.7,
/
&IONS
/
&CELL
/
ATOMIC_SPECIES
  Nb  92.9064 Nb.upf
  Ti  47.8670 Ti.upf
ATOMIC_POSITIONS crystal
  Ti 0.500000000000 0.500000000000 0.500000000000
  Nb 0.000000000000 0.000000000000 0.000000000000
CELL_PARAMETERS angstrom
      3.2710129375      0.0000000000      0.0000000000
      0.0000000000      3.2710129375      0.0000000000
      0.0000000000      0.0000000000      3.2710129375
K_POINTS crystal
343
  0.00000000  0.00000000  0.00000000  2.9155e-03
  0.00000000  0.00000000  0.14285714  2.9155e-03
  0.00000000  0.00000000  0.28571429  2.9155e-03
  0.00000000  0.00000000  0.42857143  2.9155e-03
  0.00000000  0.00000000  0.57142857  2.9155e-03
  0.00000000  0.00000000  0.71428571  2.9155e-03
  0.00000000  0.00000000  0.85714286  2.9155e-03
  0.00000000  0.14285714  0.00000000  2.9155e-03
  0.00000000  0.14285714  0.14285714  2.9155e-03
  0.00000000  0.14285714  0.28571429  2.9155e-03
  0.00000000  0.14285714  0.42857143  2.9155e-03
  0.00000000  0.14285714  0.57142857  2.9155e-03
  0.00000000  0.14285714  0.71428571  2.9155e-03
  0.00000000  0.14285714  0.85714286  2.9155e-03
  0.00000000  0.28571429  0.00000000  2.9155e-03
  0.00000000  0.28571429  0.14285714  2.9155e-03
  0.00000000  0.28571429  0.28571429  2.9155e-03
  0.00000000  0.28571429  0.42857143  2.9155e-03
  0.00000000  0.28571429  0.57142857  2.9155e-03
  0.00000000  0.28571429  0.71428571  2.9155e-03
  0.00000000  0.28571429  0.85714286  2.9155e-03
  0.00000000  0.42857143  0.00000000  2.9155e-03
  0.00000000  0.42857143  0.14285714  2.9155e-03
  0.00000000  0.42857143  0.28571429  2.9155e-03
  0.00000000  0.42857143  0.42857143  2.9155e-03
  0.00000000  0.42857143  0.57142857  2.9155e-03
  0.00000000  0.42857143  0.71428571  2.9155e-03
  0.00000000  0.42857143  0.85714286  2.9155e-03
  0.00000000  0.57142857  0.00000000  2.9155e-03
  0.00000000  0.57142857  0.14285714  2.9155e-03
  0.00000000  0.57142857  0.28571429  2.9155e-03
  0.00000000  0.57142857  0.42857143  2.9155e-03
  0.00000000  0.57142857  0.57142857  2.9155e-03
  0.00000000  0.57142857  0.71428571  2.9155e-03
  0.00000000  0.57142857  0.85714286  2.9155e-03
  0.00000000  0.71428571  0.00000000  2.9155e-03
  0.00000000  0.71428571  0.14285714  2.9155e-03
  0.00000000  0.71428571  0.28571429  2.9155e-03
  0.00000000  0.71428571  0.42857143  2.9155e-03
  0.00000000  0.71428571  0.57142857  2.9155e-03
  0.00000000  0.71428571  0.71428571  2.9155e-03
  0.00000000  0.71428571  0.85714286  2.9155e-03
  0.00000000  0.85714286  0.00000000  2.9155e-03
  0.00000000  0.85714286  0.14285714  2.9155e-03
  0.00000000  0.85714286  0.28571429  2.9155e-03
  0.00000000  0.85714286  0.42857143  2.9155e-03
  0.00000000  0.85714286  0.57142857  2.9155e-03
  0.00000000  0.85714286  0.71428571  2.9155e-03
  0.00000000  0.85714286  0.85714286  2.9155e-03
  0.14285714  0.00000000  0.00000000  2.9155e-03
  0.14285714  0.00000000  0.14285714  2.9155e-03
  0.14285714  0.00000000  0.28571429  2.9155e-03
  0.14285714  0.00000000  0.42857143  2.9155e-03
  0.14285714  0.00000000  0.57142857  2.9155e-03
  0.14285714  0.00000000  0.71428571  2.9155e-03
  0.14285714  0.00000000  0.85714286  2.9155e-03
  0.14285714  0.14285714  0.00000000  2.9155e-03
  0.14285714  0.14285714  0.14285714  2.9155e-03
  0.14285714  0.14285714  0.28571429  2.9155e-03
  0.14285714  0.14285714  0.42857143  2.9155e-03
  0.14285714  0.14285714  0.57142857  2.9155e-03
  0.14285714  0.14285714  0.71428571  2.9155e-03
  0.14285714  0.14285714  0.85714286  2.9155e-03
  0.14285714  0.28571429  0.00000000  2.9155e-03
  0.14285714  0.28571429  0.14285714  2.9155e-03
  0.14285714  0.28571429  0.28571429  2.9155e-03
  0.14285714  0.28571429  0.42857143  2.9155e-03
  0.14285714  0.28571429  0.57142857  2.9155e-03
  0.14285714  0.28571429  0.71428571  2.9155e-03
  0.14285714  0.28571429  0.85714286  2.9155e-03
  0.14285714  0.42857143  0.00000000  2.9155e-03
  0.14285714  0.42857143  0.14285714  2.9155e-03
  0.14285714  0.42857143  0.28571429  2.9155e-03
  0.14285714  0.42857143  0.42857143  2.9155e-03
  0.14285714  0.42857143  0.57142857  2.9155e-03
  0.14285714  0.42857143  0.71428571  2.9155e-03
  0.14285714  0.42857143  0.85714286  2.9155e-03
  0.14285714  0.57142857  0.00000000  2.9155e-03
  0.14285714  0.57142857  0.14285714  2.9155e-03
  0.14285714  0.57142857  0.28571429  2.9155e-03
  0.14285714  0.57142857  0.42857143  2.9155e-03
  0.14285714  0.57142857  0.57142857  2.9155e-03
  0.14285714  0.57142857  0.71428571  2.9155e-03
  0.14285714  0.57142857  0.85714286  2.9155e-03
  0.14285714  0.71428571  0.00000000  2.9155e-03
  0.14285714  0.71428571  0.14285714  2.9155e-03
  0.14285714  0.71428571  0.28571429  2.9155e-03
  0.14285714  0.71428571  0.42857143  2.9155e-03
  0.14285714  0.71428571  0.57142857  2.9155e-03
  0.14285714  0.71428571  0.71428571  2.9155e-03
  0.14285714  0.71428571  0.85714286  2.9155e-03
  0.14285714  0.85714286  0.00000000  2.9155e-03
  0.14285714  0.85714286  0.14285714  2.9155e-03
  0.14285714  0.85714286  0.28571429  2.9155e-03
  0.14285714  0.85714286  0.42857143  2.9155e-03
  0.14285714  0.85714286  0.57142857  2.9155e-03
  0.14285714  0.85714286  0.71428571  2.9155e-03
  0.14285714  0.85714286  0.85714286  2.9155e-03
  0.28571429  0.00000000  0.00000000  2.9155e-03
  0.28571429  0.00000000  0.14285714  2.9155e-03
  0.28571429  0.00000000  0.28571429  2.9155e-03
  0.28571429  0.00000000  0.42857143  2.9155e-03
  0.28571429  0.00000000  0.57142857  2.9155e-03
  0.28571429  0.00000000  0.71428571  2.9155e-03
  0.28571429  0.00000000  0.85714286  2.9155e-03
  0.28571429  0.14285714  0.00000000  2.9155e-03
  0.28571429  0.14285714  0.14285714  2.9155e-03
  0.28571429  0.14285714  0.28571429  2.9155e-03
  0.28571429  0.14285714  0.42857143  2.9155e-03
  0.28571429  0.14285714  0.57142857  2.9155e-03
  0.28571429  0.14285714  0.71428571  2.9155e-03
  0.28571429  0.14285714  0.85714286  2.9155e-03
  0.28571429  0.28571429  0.00000000  2.9155e-03
  0.28571429  0.28571429  0.14285714  2.9155e-03
  0.28571429  0.28571429  0.28571429  2.9155e-03
  0.28571429  0.28571429  0.42857143  2.9155e-03
  0.28571429  0.28571429  0.57142857  2.9155e-03
  0.28571429  0.28571429  0.71428571  2.9155e-03
  0.28571429  0.28571429  0.85714286  2.9155e-03
  0.28571429  0.42857143  0.00000000  2.9155e-03
  0.28571429  0.42857143  0.14285714  2.9155e-03
  0.28571429  0.42857143  0.28571429  2.9155e-03
  0.28571429  0.42857143  0.42857143  2.9155e-03
  0.28571429  0.42857143  0.57142857  2.9155e-03
  0.28571429  0.42857143  0.71428571  2.9155e-03
  0.28571429  0.42857143  0.85714286  2.9155e-03
  0.28571429  0.57142857  0.00000000  2.9155e-03
  0.28571429  0.57142857  0.14285714  2.9155e-03
  0.28571429  0.57142857  0.28571429  2.9155e-03
  0.28571429  0.57142857  0.42857143  2.9155e-03
  0.28571429  0.57142857  0.57142857  2.9155e-03
  0.28571429  0.57142857  0.71428571  2.9155e-03
  0.28571429  0.57142857  0.85714286  2.9155e-03
  0.28571429  0.71428571  0.00000000  2.9155e-03
  0.28571429  0.71428571  0.14285714  2.9155e-03
  0.28571429  0.71428571  0.28571429  2.9155e-03
  0.28571429  0.71428571  0.42857143  2.9155e-03
  0.28571429  0.71428571  0.57142857  2.9155e-03
  0.28571429  0.71428571  0.71428571  2.9155e-03
  0.28571429  0.71428571  0.85714286  2.9155e-03
  0.28571429  0.85714286  0.00000000  2.9155e-03
  0.28571429  0.85714286  0.14285714  2.9155e-03
  0.28571429  0.85714286  0.28571429  2.9155e-03
  0.28571429  0.85714286  0.42857143  2.9155e-03
  0.28571429  0.85714286  0.57142857  2.9155e-03
  0.28571429  0.85714286  0.71428571  2.9155e-03
  0.28571429  0.85714286  0.85714286  2.9155e-03
  0.42857143  0.00000000  0.00000000  2.9155e-03
  0.42857143  0.00000000  0.14285714  2.9155e-03
  0.42857143  0.00000000  0.28571429  2.9155e-03
  0.42857143  0.00000000  0.42857143  2.9155e-03
  0.42857143  0.00000000  0.57142857  2.9155e-03
  0.42857143  0.00000000  0.71428571  2.9155e-03
  0.42857143  0.00000000  0.85714286  2.9155e-03
  0.42857143  0.14285714  0.00000000  2.9155e-03
  0.42857143  0.14285714  0.14285714  2.9155e-03
  0.42857143  0.14285714  0.28571429  2.9155e-03
  0.42857143  0.14285714  0.42857143  2.9155e-03
  0.42857143  0.14285714  0.57142857  2.9155e-03
  0.42857143  0.14285714  0.71428571  2.9155e-03
  0.42857143  0.14285714  0.85714286  2.9155e-03
  0.42857143  0.28571429  0.00000000  2.9155e-03
  0.42857143  0.28571429  0.14285714  2.9155e-03
  0.42857143  0.28571429  0.28571429  2.9155e-03
  0.42857143  0.28571429  0.42857143  2.9155e-03
  0.42857143  0.28571429  0.57142857  2.9155e-03
  0.42857143  0.28571429  0.71428571  2.9155e-03
  0.42857143  0.28571429  0.85714286  2.9155e-03
  0.42857143  0.42857143  0.00000000  2.9155e-03
  0.42857143  0.42857143  0.14285714  2.9155e-03
  0.42857143  0.42857143  0.28571429  2.9155e-03
  0.42857143  0.42857143  0.42857143  2.9155e-03
  0.42857143  0.42857143  0.57142857  2.9155e-03
  0.42857143  0.42857143  0.71428571  2.9155e-03
  0.42857143  0.42857143  0.85714286  2.9155e-03
  0.42857143  0.57142857  0.00000000  2.9155e-03
  0.42857143  0.57142857  0.14285714  2.9155e-03
  0.42857143  0.57142857  0.28571429  2.9155e-03
  0.42857143  0.57142857  0.42857143  2.9155e-03
  0.42857143  0.57142857  0.57142857  2.9155e-03
  0.42857143  0.57142857  0.71428571  2.9155e-03
  0.42857143  0.57142857  0.85714286  2.9155e-03
  0.42857143  0.71428571  0.00000000  2.9155e-03
  0.42857143  0.71428571  0.14285714  2.9155e-03
  0.42857143  0.71428571  0.28571429  2.9155e-03
  0.42857143  0.71428571  0.42857143  2.9155e-03
  0.42857143  0.71428571  0.57142857  2.9155e-03
  0.42857143  0.71428571  0.71428571  2.9155e-03
  0.42857143  0.71428571  0.85714286  2.9155e-03
  0.42857143  0.85714286  0.00000000  2.9155e-03
  0.42857143  0.85714286  0.14285714  2.9155e-03
  0.42857143  0.85714286  0.28571429  2.9155e-03
  0.42857143  0.85714286  0.42857143  2.9155e-03
  0.42857143  0.85714286  0.57142857  2.9155e-03
  0.42857143  0.85714286  0.71428571  2.9155e-03
  0.42857143  0.85714286  0.85714286  2.9155e-03
  0.57142857  0.00000000  0.00000000  2.9155e-03
  0.57142857  0.00000000  0.14285714  2.9155e-03
  0.57142857  0.00000000  0.28571429  2.9155e-03
  0.57142857  0.00000000  0.42857143  2.9155e-03
  0.57142857  0.00000000  0.57142857  2.9155e-03
  0.57142857  0.00000000  0.71428571  2.9155e-03
  0.57142857  0.00000000  0.85714286  2.9155e-03
  0.57142857  0.14285714  0.00000000  2.9155e-03
  0.57142857  0.14285714  0.14285714  2.9155e-03
  0.57142857  0.14285714  0.28571429  2.9155e-03
  0.57142857  0.14285714  0.42857143  2.9155e-03
  0.57142857  0.14285714  0.57142857  2.9155e-03
  0.57142857  0.14285714  0.71428571  2.9155e-03
  0.57142857  0.14285714  0.85714286  2.9155e-03
  0.57142857  0.28571429  0.00000000  2.9155e-03
  0.57142857  0.28571429  0.14285714  2.9155e-03
  0.57142857  0.28571429  0.28571429  2.9155e-03
  0.57142857  0.28571429  0.42857143  2.9155e-03
  0.57142857  0.28571429  0.57142857  2.9155e-03
  0.57142857  0.28571429  0.71428571  2.9155e-03
  0.57142857  0.28571429  0.85714286  2.9155e-03
  0.57142857  0.42857143  0.00000000  2.9155e-03
  0.57142857  0.42857143  0.14285714  2.9155e-03
  0.57142857  0.42857143  0.28571429  2.9155e-03
  0.57142857  0.42857143  0.42857143  2.9155e-03
  0.57142857  0.42857143  0.57142857  2.9155e-03
  0.57142857  0.42857143  0.71428571  2.9155e-03
  0.57142857  0.42857143  0.85714286  2.9155e-03
  0.57142857  0.57142857  0.00000000  2.9155e-03
  0.57142857  0.57142857  0.14285714  2.9155e-03
  0.57142857  0.57142857  0.28571429  2.9155e-03
  0.57142857  0.57142857  0.42857143  2.9155e-03
  0.57142857  0.57142857  0.57142857  2.9155e-03
  0.57142857  0.57142857  0.71428571  2.9155e-03
  0.57142857  0.57142857  0.85714286  2.9155e-03
  0.57142857  0.71428571  0.00000000  2.9155e-03
  0.57142857  0.71428571  0.14285714  2.9155e-03
  0.57142857  0.71428571  0.28571429  2.9155e-03
  0.57142857  0.71428571  0.42857143  2.9155e-03
  0.57142857  0.71428571  0.57142857  2.9155e-03
  0.57142857  0.71428571  0.71428571  2.9155e-03
  0.57142857  0.71428571  0.85714286  2.9155e-03
  0.57142857  0.85714286  0.00000000  2.9155e-03
  0.57142857  0.85714286  0.14285714  2.9155e-03
  0.57142857  0.85714286  0.28571429  2.9155e-03
  0.57142857  0.85714286  0.42857143  2.9155e-03
  0.57142857  0.85714286  0.57142857  2.9155e-03
  0.57142857  0.85714286  0.71428571  2.9155e-03
  0.57142857  0.85714286  0.85714286  2.9155e-03
  0.71428571  0.00000000  0.00000000  2.9155e-03
  0.71428571  0.00000000  0.14285714  2.9155e-03
  0.71428571  0.00000000  0.28571429  2.9155e-03
  0.71428571  0.00000000  0.42857143  2.9155e-03
  0.71428571  0.00000000  0.57142857  2.9155e-03
  0.71428571  0.00000000  0.71428571  2.9155e-03
  0.71428571  0.00000000  0.85714286  2.9155e-03
  0.71428571  0.14285714  0.00000000  2.9155e-03
  0.71428571  0.14285714  0.14285714  2.9155e-03
  0.71428571  0.14285714  0.28571429  2.9155e-03
  0.71428571  0.14285714  0.42857143  2.9155e-03
  0.71428571  0.14285714  0.57142857  2.9155e-03
  0.71428571  0.14285714  0.71428571  2.9155e-03
  0.71428571  0.14285714  0.85714286  2.9155e-03
  0.71428571  0.28571429  0.00000000  2.9155e-03
  0.71428571  0.28571429  0.14285714  2.9155e-03
  0.71428571  0.28571429  0.28571429  2.9155e-03
  0.71428571  0.28571429  0.42857143  2.9155e-03
  0.71428571  0.28571429  0.57142857  2.9155e-03
  0.71428571  0.28571429  0.71428571  2.9155e-03
  0.71428571  0.28571429  0.85714286  2.9155e-03
  0.71428571  0.42857143  0.00000000  2.9155e-03
  0.71428571  0.42857143  0.14285714  2.9155e-03
  0.71428571  0.42857143  0.28571429  2.9155e-03
  0.71428571  0.42857143  0.42857143  2.9155e-03
  0.71428571  0.42857143  0.57142857  2.9155e-03
  0.71428571  0.42857143  0.71428571  2.9155e-03
  0.71428571  0.42857143  0.85714286  2.9155e-03
  0.71428571  0.57142857  0.00000000  2.9155e-03
  0.71428571  0.57142857  0.14285714  2.9155e-03
  0.71428571  0.57142857  0.28571429  2.9155e-03
  0.71428571  0.57142857  0.42857143  2.9155e-03
  0.71428571  0.57142857  0.57142857  2.9155e-03
  0.71428571  0.57142857  0.71428571  2.9155e-03
  0.71428571  0.57142857  0.85714286  2.9155e-03
  0.71428571  0.71428571  0.00000000  2.9155e-03
  0.71428571  0.71428571  0.14285714  2.9155e-03
  0.71428571  0.71428571  0.28571429  2.9155e-03
  0.71428571  0.71428571  0.42857143  2.9155e-03
  0.71428571  0.71428571  0.57142857  2.9155e-03
  0.71428571  0.71428571  0.71428571  2.9155e-03
  0.71428571  0.71428571  0.85714286  2.9155e-03
  0.71428571  0.85714286  0.00000000  2.9155e-03
  0.71428571  0.85714286  0.14285714  2.9155e-03
  0.71428571  0.85714286  0.28571429  2.9155e-03
  0.71428571  0.85714286  0.42857143  2.9155e-03
  0.71428571  0.85714286  0.57142857  2.9155e-03
  0.71428571  0.85714286  0.71428571  2.9155e-03
  0.71428571  0.85714286  0.85714286  2.9155e-03
  0.85714286  0.00000000  0.00000000  2.9155e-03
  0.85714286  0.00000000  0.14285714  2.9155e-03
  0.85714286  0.00000000  0.28571429  2.9155e-03
  0.85714286  0.00000000  0.42857143  2.9155e-03
  0.85714286  0.00000000  0.57142857  2.9155e-03
  0.85714286  0.00000000  0.71428571  2.9155e-03
  0.85714286  0.00000000  0.85714286  2.9155e-03
  0.85714286  0.14285714  0.00000000  2.9155e-03
  0.85714286  0.14285714  0.14285714  2.9155e-03
  0.85714286  0.14285714  0.28571429  2.9155e-03
  0.85714286  0.14285714  0.42857143  2.9155e-03
  0.85714286  0.14285714  0.57142857  2.9155e-03
  0.85714286  0.14285714  0.71428571  2.9155e-03
  0.85714286  0.14285714  0.85714286  2.9155e-03
  0.85714286  0.28571429  0.00000000  2.9155e-03
  0.85714286  0.28571429  0.14285714  2.9155e-03
  0.85714286  0.28571429  0.28571429  2.9155e-03
  0.85714286  0.28571429  0.42857143  2.9155e-03
  0.85714286  0.28571429  0.57142857  2.9155e-03
  0.85714286  0.28571429  0.71428571  2.9155e-03
  0.85714286  0.28571429  0.85714286  2.9155e-03
  0.85714286  0.42857143  0.00000000  2.9155e-03
  0.85714286  0.42857143  0.14285714  2.9155e-03
  0.85714286  0.42857143  0.28571429  2.9155e-03
  0.85714286  0.42857143  0.42857143  2.9155e-03
  0.85714286  0.42857143  0.57142857  2.9155e-03
  0.85714286  0.42857143  0.71428571  2.9155e-03
  0.85714286  0.42857143  0.85714286  2.9155e-03
  0.85714286  0.57142857  0.00000000  2.9155e-03
  0.85714286  0.57142857  0.14285714  2.9155e-03
  0.85714286  0.57142857  0.28571429  2.9155e-03
  0.85714286  0.57142857  0.42857143  2.9155e-03
  0.85714286  0.57142857  0.57142857  2.9155e-03
  0.85714286  0.57142857  0.71428571  2.9155e-03
  0.85714286  0.57142857  0.85714286  2.9155e-03
  0.85714286  0.71428571  0.00000000  2.9155e-03
  0.85714286  0.71428571  0.14285714  2.9155e-03
  0.85714286  0.71428571  0.28571429  2.9155e-03
  0.85714286  0.71428571  0.42857143  2.9155e-03
  0.85714286  0.71428571  0.57142857  2.9155e-03
  0.85714286  0.71428571  0.71428571  2.9155e-03
  0.85714286  0.71428571  0.85714286  2.9155e-03
  0.85714286  0.85714286  0.00000000  2.9155e-03
  0.85714286  0.85714286  0.14285714  2.9155e-03
  0.85714286  0.85714286  0.28571429  2.9155e-03
  0.85714286  0.85714286  0.42857143  2.9155e-03
  0.85714286  0.85714286  0.57142857  2.9155e-03
  0.85714286  0.85714286  0.71428571  2.9155e-03
  0.85714286  0.85714286  0.85714286  2.9155e-03
