&CONTROL
  calculation = 'bands',
  prefix = 'nbti',
  pseudo_dir = '../../pseudo/',
  verbosity = 'low',
/
&SYSTEM
  degauss = 0.015,
  ecutrho = 340.0,
  ecutwfc = 85.0,
  ibrav = 0,
  nosym = .FALSE.,
  occupations = 'smearing',
  smearing = 'gauss',
  nat = 16,
  ntyp = 2,
  nbnd = 200,
/
&ELECTRONS
  conv_thr = 1d-10,
  electron_maxstep = 80,
  mixing_beta = 0.5,
  mixing_mode = 'local-TF',
/
&IONS
/
&CELL
/
ATOMIC_SPECIES
  Nb  92.9064 Nb.upf
  Ti  47.8670 Ti.upf
ATOMIC_POSITIONS crystal
  Ti 0.251001004400 0.748999418000 0.751401842900
  Ti 0.498998995600 0.501000582000 0.498598157100
  Ti 0.260795894100 0.739206333400 0.247234970100
  Ti 0.489204105900 0.510793666600 0.002765029900
  Ti 0.249474464800 0.252208000600 0.246092827700
  Ti 0.002207460000 0.499475373800 0.003906422000
  Ti 0.500525535200 -0.002208000600 0.003907172300
  Ti 0.747792540000 0.750524626200 0.246093578000
  Nb 0.749187496400 0.250812504500 0.759446051200
  Nb 0.739789178200 0.260211776600 0.237513152200
  Nb 0.000812503600 -0.000812504500 0.490553948800
  Nb 0.010210821800 -0.010211776600 0.012486847800
  Nb 0.001361266100 0.501399762700 0.495129580000
  Nb 0.498600424300 -0.001360281100 0.495129145000
  Nb 0.251399575700 0.251360281100 0.754870855000
  Nb 0.748638733900 0.748600237300 0.754870420000
CELL_PARAMETERS angstrom
      4.8123692870      0.0103618240     -0.0053479080
     -1.5821765300      4.5448706940      0.0053423350
     -0.0084338540      0.0059946750      7.9031072500
K_POINTS crystal
408
    -0.37500000  0.37500000  0.00000000 1
    -0.38157895  0.38157895  0.00000000 1
    -0.38815789  0.38815789  0.00000000 1
    -0.39473684  0.39473684  0.00000000 1
    -0.40131579  0.40131579  0.00000000 1
    -0.40789474  0.40789474  0.00000000 1
    -0.41447368  0.41447368  0.00000000 1
    -0.42105263  0.42105263  0.00000000 1
    -0.42763158  0.42763158  0.00000000 1
    -0.43421053  0.43421053  0.00000000 1
    -0.44078947  0.44078947  0.00000000 1
    -0.44736842  0.44736842  0.00000000 1
    -0.45394737  0.45394737  0.00000000 1
    -0.46052632  0.46052632  0.00000000 1
    -0.46710526  0.46710526  0.00000000 1
    -0.47368421  0.47368421  0.00000000 1
    -0.48026316  0.48026316  0.00000000 1
    -0.48684211  0.48684211  0.00000000 1
    -0.49342105  0.49342105  0.00000000 1
    -0.50000000  0.50000000  0.00000000 1
    -0.49367089  0.49367089  0.00000000 1
    -0.48734177  0.48734177  0.00000000 1
    -0.48101266  0.48101266  0.00000000 1
    -0.47468354  0.47468354  0.00000000 1
    -0.46835443  0.46835443  0.00000000 1
    -0.46202532  0.46202532  0.00000000 1
    -0.45569620  0.45569620  0.00000000 1
    -0.44936709  0.44936709  0.00000000 1
    -0.44303797  0.44303797  0.00000000 1
    -0.43670886  0.43670886  0.00000000 1
    -0.43037975  0.43037975  0.00000000 1
    -0.42405063  0.42405063  0.00000000 1
    -0.41772152  0.41772152  0.00000000 1
    -0.41139241  0.41139241  0.00000000 1
    -0.40506329  0.40506329  0.00000000 1
    -0.39873418  0.39873418  0.00000000 1
    -0.39240506  0.39240506  0.00000000 1
    -0.38607595  0.38607595  0.00000000 1
    -0.37974684  0.37974684  0.00000000 1
    -0.37341772  0.37341772  0.00000000 1
    -0.36708861  0.36708861  0.00000000 1
    -0.36075949  0.36075949  0.00000000 1
    -0.35443038  0.35443038  0.00000000 1
    -0.34810127  0.34810127  0.00000000 1
    -0.34177215  0.34177215  0.00000000 1
    -0.33544304  0.33544304  0.00000000 1
    -0.32911392  0.32911392  0.00000000 1
    -0.32278481  0.32278481  0.00000000 1
    -0.31645570  0.31645570  0.00000000 1
    -0.31012658  0.31012658  0.00000000 1
    -0.30379747  0.30379747  0.00000000 1
    -0.29746835  0.29746835  0.00000000 1
    -0.29113924  0.29113924  0.00000000 1
    -0.28481013  0.28481013  0.00000000 1
    -0.27848101  0.27848101  0.00000000 1
    -0.27215190  0.27215190  0.00000000 1
    -0.26582278  0.26582278  0.00000000 1
    -0.25949367  0.25949367  0.00000000 1
    -0.25316456  0.25316456  0.00000000 1
    -0.24683544  0.24683544  0.00000000 1
    -0.24050633  0.24050633  0.00000000 1
    -0.23417722  0.23417722  0.00000000 1
    -0.22784810  0.22784810  0.00000000 1
    -0.22151899  0.22151899  0.00000000 1
    -0.21518987  0.21518987  0.00000000 1
    -0.20886076  0.20886076  0.00000000 1
    -0.20253165  0.20253165  0.00000000 1
    -0.19620253  0.19620253  0.00000000 1
    -0.18987342  0.18987342  0.00000000 1
    -0.18354430  0.18354430  0.00000000 1
    -0.17721519  0.17721519  0.00000000 1
    -0.17088608  0.17088608  0.00000000 1
    -0.16455696  0.16455696  0.00000000 1
    -0.15822785  0.15822785  0.00000000 1
    -0.15189873  0.15189873  0.00000000 1
    -0.14556962  0.14556962  0.00000000 1
    -0.13924051  0.13924051  0.00000000 1
    -0.13291139  0.13291139  0.00000000 1
    -0.12658228  0.12658228  0.00000000 1
    -0.12025316  0.12025316  0.00000000 1
    -0.11392405  0.11392405  0.00000000 1
    -0.10759494  0.10759494  0.00000000 1
    -0.10126582  0.10126582  0.00000000 1
    -0.09493671  0.09493671  0.00000000 1
    -0.08860759  0.08860759  0.00000000 1
    -0.08227848  0.08227848  0.00000000 1
    -0.07594937  0.07594937  0.00000000 1
    -0.06962025  0.06962025  0.00000000 1
    -0.06329114  0.06329114  0.00000000 1
    -0.05696203  0.05696203  0.00000000 1
    -0.05063291  0.05063291  0.00000000 1
    -0.04430380  0.04430380  0.00000000 1
    -0.03797468  0.03797468  0.00000000 1
    -0.03164557  0.03164557  0.00000000 1
    -0.02531646  0.02531646  0.00000000 1
    -0.01898734  0.01898734  0.00000000 1
    -0.01265823  0.01265823  0.00000000 1
    -0.00632911  0.00632911  0.00000000 1
    0.00000000  0.00000000  0.00000000 1
    -0.00568182  0.00568182  0.00568182 1
    -0.01136364  0.01136364  0.01136364 1
    -0.01704545  0.01704545  0.01704545 1
    -0.02272727  0.02272727  0.02272727 1
    -0.02840909  0.02840909  0.02840909 1
    -0.03409091  0.03409091  0.03409091 1
    -0.03977273  0.03977273  0.03977273 1
    -0.04545455  0.04545455  0.04545455 1
    -0.05113636  0.05113636  0.05113636 1
    -0.05681818  0.05681818  0.05681818 1
    -0.06250000  0.06250000  0.06250000 1
    -0.06818182  0.06818182  0.06818182 1
    -0.07386364  0.07386364  0.07386364 1
    -0.07954545  0.07954545  0.07954545 1
    -0.08522727  0.08522727  0.08522727 1
    -0.09090909  0.09090909  0.09090909 1
    -0.09659091  0.09659091  0.09659091 1
    -0.10227273  0.10227273  0.10227273 1
    -0.10795455  0.10795455  0.10795455 1
    -0.11363636  0.11363636  0.11363636 1
    -0.11931818  0.11931818  0.11931818 1
    -0.12500000  0.12500000  0.12500000 1
    -0.13068182  0.13068182  0.13068182 1
    -0.13636364  0.13636364  0.13636364 1
    -0.14204545  0.14204545  0.14204545 1
    -0.14772727  0.14772727  0.14772727 1
    -0.15340909  0.15340909  0.15340909 1
    -0.15909091  0.15909091  0.15909091 1
    -0.16477273  0.16477273  0.16477273 1
    -0.17045455  0.17045455  0.17045455 1
    -0.17613636  0.17613636  0.17613636 1
    -0.18181818  0.18181818  0.18181818 1
    -0.18750000  0.18750000  0.18750000 1
    -0.19318182  0.19318182  0.19318182 1
    -0.19886364  0.19886364  0.19886364 1
    -0.20454545  0.20454545  0.20454545 1
    -0.21022727  0.21022727  0.21022727 1
    -0.21590909  0.21590909  0.21590909 1
    -0.22159091  0.22159091  0.22159091 1
    -0.22727273  0.22727273  0.22727273 1
    -0.23295455  0.23295455  0.23295455 1
    -0.23863636  0.23863636  0.23863636 1
    -0.24431818  0.24431818  0.24431818 1
    -0.25000000  0.25000000  0.25000000 1
    -0.25568182  0.25568182  0.25568182 1
    -0.26136364  0.26136364  0.26136364 1
    -0.26704545  0.26704545  0.26704545 1
    -0.27272727  0.27272727  0.27272727 1
    -0.27840909  0.27840909  0.27840909 1
    -0.28409091  0.28409091  0.28409091 1
    -0.28977273  0.28977273  0.28977273 1
    -0.29545455  0.29545455  0.29545455 1
    -0.30113636  0.30113636  0.30113636 1
    -0.30681818  0.30681818  0.30681818 1
    -0.31250000  0.31250000  0.31250000 1
    -0.31818182  0.31818182  0.31818182 1
    -0.32386364  0.32386364  0.32386364 1
    -0.32954545  0.32954545  0.32954545 1
    -0.33522727  0.33522727  0.33522727 1
    -0.34090909  0.34090909  0.34090909 1
    -0.34659091  0.34659091  0.34659091 1
    -0.35227273  0.35227273  0.35227273 1
    -0.35795455  0.35795455  0.35795455 1
    -0.36363636  0.36363636  0.36363636 1
    -0.36931818  0.36931818  0.36931818 1
    -0.37500000  0.37500000  0.37500000 1
    -0.38068182  0.38068182  0.38068182 1
    -0.38636364  0.38636364  0.38636364 1
    -0.39204545  0.39204545  0.39204545 1
    -0.39772727  0.39772727  0.39772727 1
    -0.40340909  0.40340909  0.40340909 1
    -0.40909091  0.40909091  0.40909091 1
    -0.41477273  0.41477273  0.41477273 1
    -0.42045455  0.42045455  0.42045455 1
    -0.42613636  0.42613636  0.42613636 1
    -0.43181818  0.43181818  0.43181818 1
    -0.43750000  0.43750000  0.43750000 1
    -0.44318182  0.44318182  0.44318182 1
    -0.44886364  0.44886364  0.44886364 1
    -0.45454545  0.45454545  0.45454545 1
    -0.46022727  0.46022727  0.46022727 1
    -0.46590909  0.46590909  0.46590909 1
    -0.47159091  0.47159091  0.47159091 1
    -0.47727273  0.47727273  0.47727273 1
    -0.48295455  0.48295455  0.48295455 1
    -0.48863636  0.48863636  0.48863636 1
    -0.49431818  0.49431818  0.49431818 1
    -0.50000000  0.50000000  0.50000000 1
    -0.49537037  0.50462963  0.50000000 1
    -0.49074074  0.50925926  0.50000000 1
    -0.48611111  0.51388889  0.50000000 1
    -0.48148148  0.51851852  0.50000000 1
    -0.47685185  0.52314815  0.50000000 1
    -0.47222222  0.52777778  0.50000000 1
    -0.46759259  0.53240741  0.50000000 1
    -0.46296296  0.53703704  0.50000000 1
    -0.45833333  0.54166667  0.50000000 1
    -0.45370370  0.54629630  0.50000000 1
    -0.44907407  0.55092593  0.50000000 1
    -0.44444444  0.55555556  0.50000000 1
    -0.43981481  0.56018519  0.50000000 1
    -0.43518519  0.56481481  0.50000000 1
    -0.43055556  0.56944444  0.50000000 1
    -0.42592593  0.57407407  0.50000000 1
    -0.42129630  0.57870370  0.50000000 1
    -0.41666667  0.58333333  0.50000000 1
    -0.41203704  0.58796296  0.50000000 1
    -0.40740741  0.59259259  0.50000000 1
    -0.40277778  0.59722222  0.50000000 1
    -0.39814815  0.60185185  0.50000000 1
    -0.39351852  0.60648148  0.50000000 1
    -0.38888889  0.61111111  0.50000000 1
    -0.38425926  0.61574074  0.50000000 1
    -0.37962963  0.62037037  0.50000000 1
    -0.37500000  0.62500000  0.50000000 1
    -0.36718750  0.62239583  0.50000000 1
    -0.35937500  0.61979167  0.50000000 1
    -0.35156250  0.61718750  0.50000000 1
    -0.34375000  0.61458333  0.50000000 1
    -0.33593750  0.61197917  0.50000000 1
    -0.32812500  0.60937500  0.50000000 1
    -0.32031250  0.60677083  0.50000000 1
    -0.31250000  0.60416667  0.50000000 1
    -0.30468750  0.60156250  0.50000000 1
    -0.29687500  0.59895833  0.50000000 1
    -0.28906250  0.59635417  0.50000000 1
    -0.28125000  0.59375000  0.50000000 1
    -0.27343750  0.59114583  0.50000000 1
    -0.26562500  0.58854167  0.50000000 1
    -0.25781250  0.58593750  0.50000000 1
    -0.25000000  0.58333333  0.50000000 1
    -0.24218750  0.58072917  0.50000000 1
    -0.23437500  0.57812500  0.50000000 1
    -0.22656250  0.57552083  0.50000000 1
    -0.21875000  0.57291667  0.50000000 1
    -0.21093750  0.57031250  0.50000000 1
    -0.20312500  0.56770833  0.50000000 1
    -0.19531250  0.56510417  0.50000000 1
    -0.18750000  0.56250000  0.50000000 1
    -0.17968750  0.55989583  0.50000000 1
    -0.17187500  0.55729167  0.50000000 1
    -0.16406250  0.55468750  0.50000000 1
    -0.15625000  0.55208333  0.50000000 1
    -0.14843750  0.54947917  0.50000000 1
    -0.14062500  0.54687500  0.50000000 1
    -0.13281250  0.54427083  0.50000000 1
    -0.12500000  0.54166667  0.50000000 1
    -0.11718750  0.53906250  0.50000000 1
    -0.10937500  0.53645833  0.50000000 1
    -0.10156250  0.53385417  0.50000000 1
    -0.09375000  0.53125000  0.50000000 1
    -0.08593750  0.52864583  0.50000000 1
    -0.07812500  0.52604167  0.50000000 1
    -0.07031250  0.52343750  0.50000000 1
    -0.06250000  0.52083333  0.50000000 1
    -0.05468750  0.51822917  0.50000000 1
    -0.04687500  0.51562500  0.50000000 1
    -0.03906250  0.51302083  0.50000000 1
    -0.03125000  0.51041667  0.50000000 1
    -0.02343750  0.50781250  0.50000000 1
    -0.01562500  0.50520833  0.50000000 1
    -0.00781250  0.50260417  0.50000000 1
    0.00000000  0.50000000  0.50000000 1
    0.00000000  0.50000000  0.48717949 1
    0.00000000  0.50000000  0.47435897 1
    0.00000000  0.50000000  0.46153846 1
    0.00000000  0.50000000  0.44871795 1
    0.00000000  0.50000000  0.43589744 1
    0.00000000  0.50000000  0.42307692 1
    0.00000000  0.50000000  0.41025641 1
    0.00000000  0.50000000  0.39743590 1
    0.00000000  0.50000000  0.38461538 1
    0.00000000  0.50000000  0.37179487 1
    0.00000000  0.50000000  0.35897436 1
    0.00000000  0.50000000  0.34615385 1
    0.00000000  0.50000000  0.33333333 1
    0.00000000  0.50000000  0.32051282 1
    0.00000000  0.50000000  0.30769231 1
    0.00000000  0.50000000  0.29487179 1
    0.00000000  0.50000000  0.28205128 1
    0.00000000  0.50000000  0.26923077 1
    0.00000000  0.50000000  0.25641026 1
    0.00000000  0.50000000  0.24358974 1
    0.00000000  0.50000000  0.23076923 1
    0.00000000  0.50000000  0.21794872 1
    0.00000000  0.50000000  0.20512821 1
    0.00000000  0.50000000  0.19230769 1
    0.00000000  0.50000000  0.17948718 1
    0.00000000  0.50000000  0.16666667 1
    0.00000000  0.50000000  0.15384615 1
    0.00000000  0.50000000  0.14102564 1
    0.00000000  0.50000000  0.12820513 1
    0.00000000  0.50000000  0.11538462 1
    0.00000000  0.50000000  0.10256410 1
    0.00000000  0.50000000  0.08974359 1
    0.00000000  0.50000000  0.07692308 1
    0.00000000  0.50000000  0.06410256 1
    0.00000000  0.50000000  0.05128205 1
    0.00000000  0.50000000  0.03846154 1
    0.00000000  0.50000000  0.02564103 1
    0.00000000  0.50000000  0.01282051 1
    0.00000000  0.50000000  0.00000000 1
    0.00000000  0.49264706  0.00000000 1
    0.00000000  0.48529412  0.00000000 1
    0.00000000  0.47794118  0.00000000 1
    0.00000000  0.47058824  0.00000000 1
    0.00000000  0.46323529  0.00000000 1
    0.00000000  0.45588235  0.00000000 1
    0.00000000  0.44852941  0.00000000 1
    0.00000000  0.44117647  0.00000000 1
    0.00000000  0.43382353  0.00000000 1
    0.00000000  0.42647059  0.00000000 1
    0.00000000  0.41911765  0.00000000 1
    0.00000000  0.41176471  0.00000000 1
    0.00000000  0.40441176  0.00000000 1
    0.00000000  0.39705882  0.00000000 1
    0.00000000  0.38970588  0.00000000 1
    0.00000000  0.38235294  0.00000000 1
    0.00000000  0.37500000  0.00000000 1
    0.00000000  0.36764706  0.00000000 1
    0.00000000  0.36029412  0.00000000 1
    0.00000000  0.35294118  0.00000000 1
    0.00000000  0.34558824  0.00000000 1
    0.00000000  0.33823529  0.00000000 1
    0.00000000  0.33088235  0.00000000 1
    0.00000000  0.32352941  0.00000000 1
    0.00000000  0.31617647  0.00000000 1
    0.00000000  0.30882353  0.00000000 1
    0.00000000  0.30147059  0.00000000 1
    0.00000000  0.29411765  0.00000000 1
    0.00000000  0.28676471  0.00000000 1
    0.00000000  0.27941176  0.00000000 1
    0.00000000  0.27205882  0.00000000 1
    0.00000000  0.26470588  0.00000000 1
    0.00000000  0.25735294  0.00000000 1
    0.00000000  0.25000000  0.00000000 1
    0.00000000  0.24264706  0.00000000 1
    0.00000000  0.23529412  0.00000000 1
    0.00000000  0.22794118  0.00000000 1
    0.00000000  0.22058824  0.00000000 1
    0.00000000  0.21323529  0.00000000 1
    0.00000000  0.20588235  0.00000000 1
    0.00000000  0.19852941  0.00000000 1
    0.00000000  0.19117647  0.00000000 1
    0.00000000  0.18382353  0.00000000 1
    0.00000000  0.17647059  0.00000000 1
    0.00000000  0.16911765  0.00000000 1
    0.00000000  0.16176471  0.00000000 1
    0.00000000  0.15441176  0.00000000 1
    0.00000000  0.14705882  0.00000000 1
    0.00000000  0.13970588  0.00000000 1
    0.00000000  0.13235294  0.00000000 1
    0.00000000  0.12500000  0.00000000 1
    0.00000000  0.11764706  0.00000000 1
    0.00000000  0.11029412  0.00000000 1
    0.00000000  0.10294118  0.00000000 1
    0.00000000  0.09558824  0.00000000 1
    0.00000000  0.08823529  0.00000000 1
    0.00000000  0.08088235  0.00000000 1
    0.00000000  0.07352941  0.00000000 1
    0.00000000  0.06617647  0.00000000 1
    0.00000000  0.05882353  0.00000000 1
    0.00000000  0.05147059  0.00000000 1
    0.00000000  0.04411765  0.00000000 1
    0.00000000  0.03676471  0.00000000 1
    0.00000000  0.02941176  0.00000000 1
    0.00000000  0.02205882  0.00000000 1
    0.00000000  0.01470588  0.00000000 1
    0.00000000  0.00735294  0.00000000 1
    0.00000000  0.00000000  0.00000000 1
    0.00000000  0.00000000  0.01282051 1
    0.00000000  0.00000000  0.02564103 1
    0.00000000  0.00000000  0.03846154 1
    0.00000000  0.00000000  0.05128205 1
    0.00000000  0.00000000  0.06410256 1
    0.00000000  0.00000000  0.07692308 1
    0.00000000  0.00000000  0.08974359 1
    0.00000000  0.00000000  0.10256410 1
    0.00000000  0.00000000  0.11538462 1
    0.00000000  0.00000000  0.12820513 1
    0.00000000  0.00000000  0.14102564 1
    0.00000000  0.00000000  0.15384615 1
    0.00000000  0.00000000  0.16666667 1
    0.00000000  0.00000000  0.17948718 1
    0.00000000  0.00000000  0.19230769 1
    0.00000000  0.00000000  0.20512821 1
    0.00000000  0.00000000  0.21794872 1
    0.00000000  0.00000000  0.23076923 1
    0.00000000  0.00000000  0.24358974 1
    0.00000000  0.00000000  0.25641026 1
    0.00000000  0.00000000  0.26923077 1
    0.00000000  0.00000000  0.28205128 1
    0.00000000  0.00000000  0.29487179 1
    0.00000000  0.00000000  0.30769231 1
    0.00000000  0.00000000  0.32051282 1
    0.00000000  0.00000000  0.33333333 1
    0.00000000  0.00000000  0.34615385 1
    0.00000000  0.00000000  0.35897436 1
    0.00000000  0.00000000  0.37179487 1
    0.00000000  0.00000000  0.38461538 1
    0.00000000  0.00000000  0.39743590 1
    0.00000000  0.00000000  0.41025641 1
    0.00000000  0.00000000  0.42307692 1
    0.00000000  0.00000000  0.43589744 1
    0.00000000  0.00000000  0.44871795 1
    0.00000000  0.00000000  0.46153846 1
    0.00000000  0.00000000  0.47435897 1
    0.00000000  0.00000000  0.48717949 1
    0.00000000  0.00000000  0.50000000 1
