&CONTROL
  calculation = 'bands',
  prefix = 'hea',
  pseudo_dir = '../../pseudo/',
  verbosity = 'low',
/
&SYSTEM
  degauss = 0.15,
  ecutrho = 340.0,
  ecutwfc = 85.0,
  ibrav = 0,
  nbnd = 200,
  nosym = .FALSE.,
  occupations = 'smearing',
  smearing = 'gauss',
  nat = 20,
  ntyp = 5,
/
&ELECTRONS
  conv_thr = 1d-10,
  electron_maxstep = 80,
  mixing_beta = 0.7,
  mixing_mode = 'local-TF',
/
&IONS
/
&CELL
/
ATOMIC_SPECIES
  Hf  178.4900 Hf.upf
  Nb  92.9064 Nb.upf
  Ta  180.9479 Ta.upf
  Ti  47.8670 Ti.upf
  Zr  91.2240 Zr.upf
ATOMIC_POSITIONS crystal
  Hf 0.601338506200 0.601338423000 0.900400128600
  Hf 0.397142865400 0.397142772200 0.844263320500
  Zr 0.599411577400 0.599411630600 0.148011310500
  Zr 0.806669401200 0.806669487600 0.460296977100
  Ta 0.797035461900 0.797035537900 0.196707670000
  Ta 0.397941414300 0.397941443100 0.101291325900
  Ta 0.600643184400 0.600643251400 0.401175656200
  Ta 0.204631695200 0.204631793200 0.302287381000
  Ta 0.000521394400 0.000521465400 0.251143400900
  Ta -0.001674898300 -0.001674992800 0.751130864600
  Ta 0.802384579200 0.802384538900 0.949061501200
  Ti 0.400370329300 0.400370299000 0.596503076900
  Ti 0.199564157300 0.199564153000 0.046646715100
  Nb 0.796997065400 0.796996975300 0.697033420800
  Nb 0.005198947200 0.005198911000 0.003340372100
  Nb -0.001437723000 -0.001437687400 0.500144048800
  Nb 0.196784798200 0.196784714700 0.800700904300
  Nb 0.399035327100 0.399035416400 0.348618974900
  Nb 0.200283520500 0.200283518600 0.552503531600
  Nb 0.597158396700 0.597158348600 0.648739418900
CELL_PARAMETERS angstrom
      6.3457058140      0.0012613440     -3.4077853540
      4.9775902020      3.9359328390     -3.4077871030
     -0.0121249100     -0.0042116290     10.1809400540
K_POINTS crystal
487
    0.00000000  0.00000000  0.00000000 1
    0.00000000  0.00632911  0.00000000 1
    0.00000000  0.01265823  0.00000000 1
    0.00000000  0.01898734  0.00000000 1
    0.00000000  0.02531646  0.00000000 1
    0.00000000  0.03164557  0.00000000 1
    0.00000000  0.03797468  0.00000000 1
    0.00000000  0.04430380  0.00000000 1
    0.00000000  0.05063291  0.00000000 1
    0.00000000  0.05696203  0.00000000 1
    0.00000000  0.06329114  0.00000000 1
    0.00000000  0.06962025  0.00000000 1
    0.00000000  0.07594937  0.00000000 1
    0.00000000  0.08227848  0.00000000 1
    0.00000000  0.08860759  0.00000000 1
    0.00000000  0.09493671  0.00000000 1
    0.00000000  0.10126582  0.00000000 1
    0.00000000  0.10759494  0.00000000 1
    0.00000000  0.11392405  0.00000000 1
    0.00000000  0.12025316  0.00000000 1
    0.00000000  0.12658228  0.00000000 1
    0.00000000  0.13291139  0.00000000 1
    0.00000000  0.13924051  0.00000000 1
    0.00000000  0.14556962  0.00000000 1
    0.00000000  0.15189873  0.00000000 1
    0.00000000  0.15822785  0.00000000 1
    0.00000000  0.16455696  0.00000000 1
    0.00000000  0.17088608  0.00000000 1
    0.00000000  0.17721519  0.00000000 1
    0.00000000  0.18354430  0.00000000 1
    0.00000000  0.18987342  0.00000000 1
    0.00000000  0.19620253  0.00000000 1
    0.00000000  0.20253165  0.00000000 1
    0.00000000  0.20886076  0.00000000 1
    0.00000000  0.21518987  0.00000000 1
    0.00000000  0.22151899  0.00000000 1
    0.00000000  0.22784810  0.00000000 1
    0.00000000  0.23417722  0.00000000 1
    0.00000000  0.24050633  0.00000000 1
    0.00000000  0.24683544  0.00000000 1
    0.00000000  0.25316456  0.00000000 1
    0.00000000  0.25949367  0.00000000 1
    0.00000000  0.26582278  0.00000000 1
    0.00000000  0.27215190  0.00000000 1
    0.00000000  0.27848101  0.00000000 1
    0.00000000  0.28481013  0.00000000 1
    0.00000000  0.29113924  0.00000000 1
    0.00000000  0.29746835  0.00000000 1
    0.00000000  0.30379747  0.00000000 1
    0.00000000  0.31012658  0.00000000 1
    0.00000000  0.31645570  0.00000000 1
    0.00000000  0.32278481  0.00000000 1
    0.00000000  0.32911392  0.00000000 1
    0.00000000  0.33544304  0.00000000 1
    0.00000000  0.34177215  0.00000000 1
    0.00000000  0.34810127  0.00000000 1
    0.00000000  0.35443038  0.00000000 1
    0.00000000  0.36075949  0.00000000 1
    0.00000000  0.36708861  0.00000000 1
    0.00000000  0.37341772  0.00000000 1
    0.00000000  0.37974684  0.00000000 1
    0.00000000  0.38607595  0.00000000 1
    0.00000000  0.39240506  0.00000000 1
    0.00000000  0.39873418  0.00000000 1
    0.00000000  0.40506329  0.00000000 1
    0.00000000  0.41139241  0.00000000 1
    0.00000000  0.41772152  0.00000000 1
    0.00000000  0.42405063  0.00000000 1
    0.00000000  0.43037975  0.00000000 1
    0.00000000  0.43670886  0.00000000 1
    0.00000000  0.44303797  0.00000000 1
    0.00000000  0.44936709  0.00000000 1
    0.00000000  0.45569620  0.00000000 1
    0.00000000  0.46202532  0.00000000 1
    0.00000000  0.46835443  0.00000000 1
    0.00000000  0.47468354  0.00000000 1
    0.00000000  0.48101266  0.00000000 1
    0.00000000  0.48734177  0.00000000 1
    0.00000000  0.49367089  0.00000000 1
    0.00000000  0.50000000  0.00000000 1
    -0.00378378  0.50297297  0.00000000 1
    -0.00756757  0.50594595  0.00000000 1
    -0.01135135  0.50891892  0.00000000 1
    -0.01513514  0.51189189  0.00000000 1
    -0.01891892  0.51486486  0.00000000 1
    -0.02270270  0.51783784  0.00000000 1
    -0.02648649  0.52081081  0.00000000 1
    -0.03027027  0.52378378  0.00000000 1
    -0.03405405  0.52675676  0.00000000 1
    -0.03783784  0.52972973  0.00000000 1
    -0.04162162  0.53270270  0.00000000 1
    -0.04540541  0.53567568  0.00000000 1
    -0.04918919  0.53864865  0.00000000 1
    -0.05297297  0.54162162  0.00000000 1
    -0.05675676  0.54459459  0.00000000 1
    -0.06054054  0.54756757  0.00000000 1
    -0.06432432  0.55054054  0.00000000 1
    -0.06810811  0.55351351  0.00000000 1
    -0.07189189  0.55648649  0.00000000 1
    -0.07567568  0.55945946  0.00000000 1
    -0.07945946  0.56243243  0.00000000 1
    -0.08324324  0.56540541  0.00000000 1
    -0.08702703  0.56837838  0.00000000 1
    -0.09081081  0.57135135  0.00000000 1
    -0.09459459  0.57432432  0.00000000 1
    -0.09837838  0.57729730  0.00000000 1
    -0.10216216  0.58027027  0.00000000 1
    -0.10594595  0.58324324  0.00000000 1
    -0.10972973  0.58621622  0.00000000 1
    -0.11351351  0.58918919  0.00000000 1
    -0.11729730  0.59216216  0.00000000 1
    -0.12108108  0.59513514  0.00000000 1
    -0.12486486  0.59810811  0.00000000 1
    -0.12864865  0.60108108  0.00000000 1
    -0.13243243  0.60405405  0.00000000 1
    -0.13621622  0.60702703  0.00000000 1
    -0.14000000  0.61000000  0.00000000 1
    -0.14378378  0.61297297  0.00000000 1
    -0.14756757  0.61594595  0.00000000 1
    -0.15135135  0.61891892  0.00000000 1
    -0.15513514  0.62189189  0.00000000 1
    -0.15891892  0.62486486  0.00000000 1
    -0.16270270  0.62783784  0.00000000 1
    -0.16648649  0.63081081  0.00000000 1
    -0.17027027  0.63378378  0.00000000 1
    -0.17405405  0.63675676  0.00000000 1
    -0.17783784  0.63972973  0.00000000 1
    -0.18162162  0.64270270  0.00000000 1
    -0.18540541  0.64567568  0.00000000 1
    -0.18918919  0.64864865  0.00000000 1
    -0.19297297  0.65162162  0.00000000 1
    -0.19675676  0.65459459  0.00000000 1
    -0.20054054  0.65756757  0.00000000 1
    -0.20432432  0.66054054  0.00000000 1
    -0.20810811  0.66351351  0.00000000 1
    -0.21189189  0.66648649  0.00000000 1
    -0.21567568  0.66945946  0.00000000 1
    -0.21945946  0.67243243  0.00000000 1
    -0.22324324  0.67540541  0.00000000 1
    -0.22702703  0.67837838  0.00000000 1
    -0.23081081  0.68135135  0.00000000 1
    -0.23459459  0.68432432  0.00000000 1
    -0.23837838  0.68729730  0.00000000 1
    -0.24216216  0.69027027  0.00000000 1
    -0.24594595  0.69324324  0.00000000 1
    -0.24972973  0.69621622  0.00000000 1
    -0.25351351  0.69918919  0.00000000 1
    -0.25729730  0.70216216  0.00000000 1
    -0.26108108  0.70513514  0.00000000 1
    -0.26486486  0.70810811  0.00000000 1
    -0.26864865  0.71108108  0.00000000 1
    -0.27243243  0.71405405  0.00000000 1
    -0.27621622  0.71702703  0.00000000 1
    -0.28000000  0.72000000  0.00000000 1
    -0.29000000  0.71000000  0.00000000 1
    -0.30000000  0.70000000  0.00000000 1
    -0.31000000  0.69000000  0.00000000 1
    -0.32000000  0.68000000  0.00000000 1
    -0.33000000  0.67000000  0.00000000 1
    -0.34000000  0.66000000  0.00000000 1
    -0.35000000  0.65000000  0.00000000 1
    -0.36000000  0.64000000  0.00000000 1
    -0.37000000  0.63000000  0.00000000 1
    -0.38000000  0.62000000  0.00000000 1
    -0.39000000  0.61000000  0.00000000 1
    -0.40000000  0.60000000  0.00000000 1
    -0.41000000  0.59000000  0.00000000 1
    -0.42000000  0.58000000  0.00000000 1
    -0.43000000  0.57000000  0.00000000 1
    -0.44000000  0.56000000  0.00000000 1
    -0.45000000  0.55000000  0.00000000 1
    -0.46000000  0.54000000  0.00000000 1
    -0.47000000  0.53000000  0.00000000 1
    -0.48000000  0.52000000  0.00000000 1
    -0.49000000  0.51000000  0.00000000 1
    -0.50000000  0.50000000  0.00000000 1
    -0.49019608  0.49019608  0.00000000 1
    -0.48039216  0.48039216  0.00000000 1
    -0.47058824  0.47058824  0.00000000 1
    -0.46078431  0.46078431  0.00000000 1
    -0.45098039  0.45098039  0.00000000 1
    -0.44117647  0.44117647  0.00000000 1
    -0.43137255  0.43137255  0.00000000 1
    -0.42156863  0.42156863  0.00000000 1
    -0.41176471  0.41176471  0.00000000 1
    -0.40196078  0.40196078  0.00000000 1
    -0.39215686  0.39215686  0.00000000 1
    -0.38235294  0.38235294  0.00000000 1
    -0.37254902  0.37254902  0.00000000 1
    -0.36274510  0.36274510  0.00000000 1
    -0.35294118  0.35294118  0.00000000 1
    -0.34313725  0.34313725  0.00000000 1
    -0.33333333  0.33333333  0.00000000 1
    -0.32352941  0.32352941  0.00000000 1
    -0.31372549  0.31372549  0.00000000 1
    -0.30392157  0.30392157  0.00000000 1
    -0.29411765  0.29411765  0.00000000 1
    -0.28431373  0.28431373  0.00000000 1
    -0.27450980  0.27450980  0.00000000 1
    -0.26470588  0.26470588  0.00000000 1
    -0.25490196  0.25490196  0.00000000 1
    -0.24509804  0.24509804  0.00000000 1
    -0.23529412  0.23529412  0.00000000 1
    -0.22549020  0.22549020  0.00000000 1
    -0.21568627  0.21568627  0.00000000 1
    -0.20588235  0.20588235  0.00000000 1
    -0.19607843  0.19607843  0.00000000 1
    -0.18627451  0.18627451  0.00000000 1
    -0.17647059  0.17647059  0.00000000 1
    -0.16666667  0.16666667  0.00000000 1
    -0.15686275  0.15686275  0.00000000 1
    -0.14705882  0.14705882  0.00000000 1
    -0.13725490  0.13725490  0.00000000 1
    -0.12745098  0.12745098  0.00000000 1
    -0.11764706  0.11764706  0.00000000 1
    -0.10784314  0.10784314  0.00000000 1
    -0.09803922  0.09803922  0.00000000 1
    -0.08823529  0.08823529  0.00000000 1
    -0.07843137  0.07843137  0.00000000 1
    -0.06862745  0.06862745  0.00000000 1
    -0.05882353  0.05882353  0.00000000 1
    -0.04901961  0.04901961  0.00000000 1
    -0.03921569  0.03921569  0.00000000 1
    -0.02941176  0.02941176  0.00000000 1
    -0.01960784  0.01960784  0.00000000 1
    -0.00980392  0.00980392  0.00000000 1
    0.00000000  0.00000000  0.00000000 1
    -0.01086957  0.01086957  0.01086957 1
    -0.02173913  0.02173913  0.02173913 1
    -0.03260870  0.03260870  0.03260870 1
    -0.04347826  0.04347826  0.04347826 1
    -0.05434783  0.05434783  0.05434783 1
    -0.06521739  0.06521739  0.06521739 1
    -0.07608696  0.07608696  0.07608696 1
    -0.08695652  0.08695652  0.08695652 1
    -0.09782609  0.09782609  0.09782609 1
    -0.10869565  0.10869565  0.10869565 1
    -0.11956522  0.11956522  0.11956522 1
    -0.13043478  0.13043478  0.13043478 1
    -0.14130435  0.14130435  0.14130435 1
    -0.15217391  0.15217391  0.15217391 1
    -0.16304348  0.16304348  0.16304348 1
    -0.17391304  0.17391304  0.17391304 1
    -0.18478261  0.18478261  0.18478261 1
    -0.19565217  0.19565217  0.19565217 1
    -0.20652174  0.20652174  0.20652174 1
    -0.21739130  0.21739130  0.21739130 1
    -0.22826087  0.22826087  0.22826087 1
    -0.23913043  0.23913043  0.23913043 1
    -0.25000000  0.25000000  0.25000000 1
    -0.26086957  0.26086957  0.26086957 1
    -0.27173913  0.27173913  0.27173913 1
    -0.28260870  0.28260870  0.28260870 1
    -0.29347826  0.29347826  0.29347826 1
    -0.30434783  0.30434783  0.30434783 1
    -0.31521739  0.31521739  0.31521739 1
    -0.32608696  0.32608696  0.32608696 1
    -0.33695652  0.33695652  0.33695652 1
    -0.34782609  0.34782609  0.34782609 1
    -0.35869565  0.35869565  0.35869565 1
    -0.36956522  0.36956522  0.36956522 1
    -0.38043478  0.38043478  0.38043478 1
    -0.39130435  0.39130435  0.39130435 1
    -0.40217391  0.40217391  0.40217391 1
    -0.41304348  0.41304348  0.41304348 1
    -0.42391304  0.42391304  0.42391304 1
    -0.43478261  0.43478261  0.43478261 1
    -0.44565217  0.44565217  0.44565217 1
    -0.45652174  0.45652174  0.45652174 1
    -0.46739130  0.46739130  0.46739130 1
    -0.47826087  0.47826087  0.47826087 1
    -0.48913043  0.48913043  0.48913043 1
    -0.50000000  0.50000000  0.50000000 1
    -0.49000000  0.51000000  0.50000000 1
    -0.48000000  0.52000000  0.50000000 1
    -0.47000000  0.53000000  0.50000000 1
    -0.46000000  0.54000000  0.50000000 1
    -0.45000000  0.55000000  0.50000000 1
    -0.44000000  0.56000000  0.50000000 1
    -0.43000000  0.57000000  0.50000000 1
    -0.42000000  0.58000000  0.50000000 1
    -0.41000000  0.59000000  0.50000000 1
    -0.40000000  0.60000000  0.50000000 1
    -0.39000000  0.61000000  0.50000000 1
    -0.38000000  0.62000000  0.50000000 1
    -0.37000000  0.63000000  0.50000000 1
    -0.36000000  0.64000000  0.50000000 1
    -0.35000000  0.65000000  0.50000000 1
    -0.34000000  0.66000000  0.50000000 1
    -0.33000000  0.67000000  0.50000000 1
    -0.32000000  0.68000000  0.50000000 1
    -0.31000000  0.69000000  0.50000000 1
    -0.30000000  0.70000000  0.50000000 1
    -0.29000000  0.71000000  0.50000000 1
    -0.28000000  0.72000000  0.50000000 1
    -0.27000000  0.73000000  0.50000000 1
    -0.26000000  0.74000000  0.50000000 1
    -0.25648649  0.73675676  0.50000000 1
    -0.25297297  0.73351351  0.50000000 1
    -0.24945946  0.73027027  0.50000000 1
    -0.24594595  0.72702703  0.50000000 1
    -0.24243243  0.72378378  0.50000000 1
    -0.23891892  0.72054054  0.50000000 1
    -0.23540541  0.71729730  0.50000000 1
    -0.23189189  0.71405405  0.50000000 1
    -0.22837838  0.71081081  0.50000000 1
    -0.22486486  0.70756757  0.50000000 1
    -0.22135135  0.70432432  0.50000000 1
    -0.21783784  0.70108108  0.50000000 1
    -0.21432432  0.69783784  0.50000000 1
    -0.21081081  0.69459459  0.50000000 1
    -0.20729730  0.69135135  0.50000000 1
    -0.20378378  0.68810811  0.50000000 1
    -0.20027027  0.68486486  0.50000000 1
    -0.19675676  0.68162162  0.50000000 1
    -0.19324324  0.67837838  0.50000000 1
    -0.18972973  0.67513514  0.50000000 1
    -0.18621622  0.67189189  0.50000000 1
    -0.18270270  0.66864865  0.50000000 1
    -0.17918919  0.66540541  0.50000000 1
    -0.17567568  0.66216216  0.50000000 1
    -0.17216216  0.65891892  0.50000000 1
    -0.16864865  0.65567568  0.50000000 1
    -0.16513514  0.65243243  0.50000000 1
    -0.16162162  0.64918919  0.50000000 1
    -0.15810811  0.64594595  0.50000000 1
    -0.15459459  0.64270270  0.50000000 1
    -0.15108108  0.63945946  0.50000000 1
    -0.14756757  0.63621622  0.50000000 1
    -0.14405405  0.63297297  0.50000000 1
    -0.14054054  0.62972973  0.50000000 1
    -0.13702703  0.62648649  0.50000000 1
    -0.13351351  0.62324324  0.50000000 1
    -0.13000000  0.62000000  0.50000000 1
    -0.12648649  0.61675676  0.50000000 1
    -0.12297297  0.61351351  0.50000000 1
    -0.11945946  0.61027027  0.50000000 1
    -0.11594595  0.60702703  0.50000000 1
    -0.11243243  0.60378378  0.50000000 1
    -0.10891892  0.60054054  0.50000000 1
    -0.10540541  0.59729730  0.50000000 1
    -0.10189189  0.59405405  0.50000000 1
    -0.09837838  0.59081081  0.50000000 1
    -0.09486486  0.58756757  0.50000000 1
    -0.09135135  0.58432432  0.50000000 1
    -0.08783784  0.58108108  0.50000000 1
    -0.08432432  0.57783784  0.50000000 1
    -0.08081081  0.57459459  0.50000000 1
    -0.07729730  0.57135135  0.50000000 1
    -0.07378378  0.56810811  0.50000000 1
    -0.07027027  0.56486486  0.50000000 1
    -0.06675676  0.56162162  0.50000000 1
    -0.06324324  0.55837838  0.50000000 1
    -0.05972973  0.55513514  0.50000000 1
    -0.05621622  0.55189189  0.50000000 1
    -0.05270270  0.54864865  0.50000000 1
    -0.04918919  0.54540541  0.50000000 1
    -0.04567568  0.54216216  0.50000000 1
    -0.04216216  0.53891892  0.50000000 1
    -0.03864865  0.53567568  0.50000000 1
    -0.03513514  0.53243243  0.50000000 1
    -0.03162162  0.52918919  0.50000000 1
    -0.02810811  0.52594595  0.50000000 1
    -0.02459459  0.52270270  0.50000000 1
    -0.02108108  0.51945946  0.50000000 1
    -0.01756757  0.51621622  0.50000000 1
    -0.01405405  0.51297297  0.50000000 1
    -0.01054054  0.50972973  0.50000000 1
    -0.00702703  0.50648649  0.50000000 1
    -0.00351351  0.50324324  0.50000000 1
    0.00000000  0.50000000  0.50000000 1
    0.00000000  0.49382716  0.49382716 1
    0.00000000  0.48765432  0.48765432 1
    0.00000000  0.48148148  0.48148148 1
    0.00000000  0.47530864  0.47530864 1
    0.00000000  0.46913580  0.46913580 1
    0.00000000  0.46296296  0.46296296 1
    0.00000000  0.45679012  0.45679012 1
    0.00000000  0.45061728  0.45061728 1
    0.00000000  0.44444444  0.44444444 1
    0.00000000  0.43827160  0.43827160 1
    0.00000000  0.43209877  0.43209877 1
    0.00000000  0.42592593  0.42592593 1
    0.00000000  0.41975309  0.41975309 1
    0.00000000  0.41358025  0.41358025 1
    0.00000000  0.40740741  0.40740741 1
    0.00000000  0.40123457  0.40123457 1
    0.00000000  0.39506173  0.39506173 1
    0.00000000  0.38888889  0.38888889 1
    0.00000000  0.38271605  0.38271605 1
    0.00000000  0.37654321  0.37654321 1
    0.00000000  0.37037037  0.37037037 1
    0.00000000  0.36419753  0.36419753 1
    0.00000000  0.35802469  0.35802469 1
    0.00000000  0.35185185  0.35185185 1
    0.00000000  0.34567901  0.34567901 1
    0.00000000  0.33950617  0.33950617 1
    0.00000000  0.33333333  0.33333333 1
    0.00000000  0.32716049  0.32716049 1
    0.00000000  0.32098765  0.32098765 1
    0.00000000  0.31481481  0.31481481 1
    0.00000000  0.30864198  0.30864198 1
    0.00000000  0.30246914  0.30246914 1
    0.00000000  0.29629630  0.29629630 1
    0.00000000  0.29012346  0.29012346 1
    0.00000000  0.28395062  0.28395062 1
    0.00000000  0.27777778  0.27777778 1
    0.00000000  0.27160494  0.27160494 1
    0.00000000  0.26543210  0.26543210 1
    0.00000000  0.25925926  0.25925926 1
    0.00000000  0.25308642  0.25308642 1
    0.00000000  0.24691358  0.24691358 1
    0.00000000  0.24074074  0.24074074 1
    0.00000000  0.23456790  0.23456790 1
    0.00000000  0.22839506  0.22839506 1
    0.00000000  0.22222222  0.22222222 1
    0.00000000  0.21604938  0.21604938 1
    0.00000000  0.20987654  0.20987654 1
    0.00000000  0.20370370  0.20370370 1
    0.00000000  0.19753086  0.19753086 1
    0.00000000  0.19135802  0.19135802 1
    0.00000000  0.18518519  0.18518519 1
    0.00000000  0.17901235  0.17901235 1
    0.00000000  0.17283951  0.17283951 1
    0.00000000  0.16666667  0.16666667 1
    0.00000000  0.16049383  0.16049383 1
    0.00000000  0.15432099  0.15432099 1
    0.00000000  0.14814815  0.14814815 1
    0.00000000  0.14197531  0.14197531 1
    0.00000000  0.13580247  0.13580247 1
    0.00000000  0.12962963  0.12962963 1
    0.00000000  0.12345679  0.12345679 1
    0.00000000  0.11728395  0.11728395 1
    0.00000000  0.11111111  0.11111111 1
    0.00000000  0.10493827  0.10493827 1
    0.00000000  0.09876543  0.09876543 1
    0.00000000  0.09259259  0.09259259 1
    0.00000000  0.08641975  0.08641975 1
    0.00000000  0.08024691  0.08024691 1
    0.00000000  0.07407407  0.07407407 1
    0.00000000  0.06790123  0.06790123 1
    0.00000000  0.06172840  0.06172840 1
    0.00000000  0.05555556  0.05555556 1
    0.00000000  0.04938272  0.04938272 1
    0.00000000  0.04320988  0.04320988 1
    0.00000000  0.03703704  0.03703704 1
    0.00000000  0.03086420  0.03086420 1
    0.00000000  0.02469136  0.02469136 1
    0.00000000  0.01851852  0.01851852 1
    0.00000000  0.01234568  0.01234568 1
    0.00000000  0.00617284  0.00617284 1
    0.00000000  0.00000000  0.00000000 1
    0.00000000  0.00000000  0.01428571 1
    0.00000000  0.00000000  0.02857143 1
    0.00000000  0.00000000  0.04285714 1
    0.00000000  0.00000000  0.05714286 1
    0.00000000  0.00000000  0.07142857 1
    0.00000000  0.00000000  0.08571429 1
    0.00000000  0.00000000  0.10000000 1
    0.00000000  0.00000000  0.11428571 1
    0.00000000  0.00000000  0.12857143 1
    0.00000000  0.00000000  0.14285714 1
    0.00000000  0.00000000  0.15714286 1
    0.00000000  0.00000000  0.17142857 1
    0.00000000  0.00000000  0.18571429 1
    0.00000000  0.00000000  0.20000000 1
    0.00000000  0.00000000  0.21428571 1
    0.00000000  0.00000000  0.22857143 1
    0.00000000  0.00000000  0.24285714 1
    0.00000000  0.00000000  0.25714286 1
    0.00000000  0.00000000  0.27142857 1
    0.00000000  0.00000000  0.28571429 1
    0.00000000  0.00000000  0.30000000 1
    0.00000000  0.00000000  0.31428571 1
    0.00000000  0.00000000  0.32857143 1
    0.00000000  0.00000000  0.34285714 1
    0.00000000  0.00000000  0.35714286 1
    0.00000000  0.00000000  0.37142857 1
    0.00000000  0.00000000  0.38571429 1
    0.00000000  0.00000000  0.40000000 1
    0.00000000  0.00000000  0.41428571 1
    0.00000000  0.00000000  0.42857143 1
    0.00000000  0.00000000  0.44285714 1
    0.00000000  0.00000000  0.45714286 1
    0.00000000  0.00000000  0.47142857 1
    0.00000000  0.00000000  0.48571429 1
    0.00000000  0.00000000  0.50000000 1
