&bands
  prefix = 'hea'
  outdir = './'
  filband = 'HEA_band.dat'
/
