&projwfc
  prefix = 'hea'
  outdir = './'
  lsym = .TRUE.
  filpdos = 'hea-pdos'

/
