&CONTROL
  calculation = 'scf',
  prefix = 'hea',
  pseudo_dir = '../../pseudo/',
  tprnfor = .TRUE.,
  tstress = .TRUE.,
  verbosity = 'low',
/
&SYSTEM
  degauss = 0.015,
  ecutrho = 340.0,
  ecutwfc = 85.0,
  ibrav = 0,
  nosym = .FALSE.,
  occupations = 'smearing',
  smearing = 'gauss',
  nat = 20,
  ntyp = 5,
/
&ELECTRONS
  conv_thr = 1d-10,
  diago_david_ndim = 8,
  electron_maxstep = 80,
  mixing_beta = 0.5,
  mixing_mode = 'local-TF',
/
&IONS
/
&CELL
/
ATOMIC_SPECIES
  Hf  178.4900 Hf.upf
  Nb  92.9064 Nb.upf
  Ta  180.9479 Ta.upf
  Ti  47.8670 Ti.upf
  Zr  91.2240 Zr.upf
ATOMIC_POSITIONS crystal
  Hf 0.602374721200 0.602374964600 0.898493720700
  Hf 0.395912169700 0.395912426200 0.844599104200
  Zr 0.599245661600 0.599245455300 0.149289676800
  Zr 0.805828756200 0.805828497300 0.459421710600
  Ta 0.798606558700 0.798606440000 0.196018015600
  Ta 0.397615154900 0.397615109100 0.103866872300
  Ta 0.599273963700 0.599273721000 0.401967271700
  Ta 0.205297489700 0.205297172400 0.302727352800
  Ta 0.001135698800 0.001135492500 0.251026491200
  Ta -0.003711367600 -0.003711132900 0.750507508600
  Ta 0.803999748300 0.803999913600 0.949592019700
  Ti 0.402742004800 0.402742032000 0.596449713500
  Ti 0.200048572500 0.200048664100 0.048877672400
  Nb 0.795061089800 0.795061378700 0.695827899600
  Nb 0.004098958600 0.004099020500 0.002638745500
  Nb -0.000444348000 -0.000444485900 0.500722711200
  Nb 0.195881210300 0.195881489500 0.800922862300
  Nb 0.398904011900 0.398903783500 0.348031108600
  Nb 0.199909391200 0.199909383700 0.551092330100
  Nb 0.598220553900 0.598220674500 0.647927212800
K_POINTS automatic
  9 9 4 0 0 0
CELL_PARAMETERS angstrom
      6.6785274410     -0.0012946750     -3.5788395780
      5.2580535120      4.1177116620     -3.5788476090
     -0.0191833680     -0.0065943200     10.6707297990