&CONTROL
  calculation = 'scf',
  prefix = 'nbti',
  pseudo_dir = '../../pseudo/',
  tprnfor = .TRUE.,
  tstress = .TRUE.,
  verbosity = 'low',
/
&SYSTEM
  degauss = 0.015,
  ecutrho = 340.0,
  ecutwfc = 85.0,
  ibrav = 0,
  nbnd = 200,
  nosym = .FALSE.,
  occupations = 'smearing',
  smearing = 'gauss',
  nat = 16,
  ntyp = 2,
/
&ELECTRONS
  conv_thr = 1d-10,
  electron_maxstep = 80,
  mixing_beta = 0.7,
  mixing_mode = 'local-TF',
/
&IONS
/
&CELL
/
ATOMIC_SPECIES
  Nb  92.9064 Nb.upf
  Ti  47.8670 Ti.upf
ATOMIC_POSITIONS crystal
  Ti 0.253595611900 0.746404422700 0.752074729700
  Ti 0.496404388100 0.503595577300 0.497925270300
  Ti 0.260891610000 0.739108077400 0.246639697600
  Ti 0.489108390000 0.510891922600 0.003360302400
  Ti 0.245447844900 0.247038360100 0.246468527200
  Ti -0.002961363100 0.495447701000 0.003531412900
  Ti 0.504552155100 0.002961639900 0.003531472800
  Ti 0.752961363100 0.754552299000 0.246468587100
  Nb 0.746910190500 0.253089859200 0.755567690600
  Nb 0.740245228700 0.259754910300 0.241023587900
  Nb 0.003089809500 -0.003089859200 0.494432309400
  Nb 0.009754771300 -0.009754910300 0.008976412100
  Nb 0.000296645900 0.500247508200 0.494794165200
  Nb 0.499752401600 -0.000296552700 0.494794148400
  Nb 0.250247598400 0.250296552700 0.755205851600
  Nb 0.749703354100 0.749752491800 0.755205834800
CELL_PARAMETERS angstrom
      5.0252661260      0.0206271460     -0.0063770560
     -1.6462880150      4.7480003990      0.0063766700
     -0.0101549640      0.0072004720      8.2334289330
K_POINTS crystal
486
  0.00000000  0.00000000  0.00000000  2.0576e-03
  0.00000000  0.00000000  0.16666667  2.0576e-03
  0.00000000  0.00000000  0.33333333  2.0576e-03
  0.00000000  0.00000000  0.50000000  2.0576e-03
  0.00000000  0.00000000  0.66666667  2.0576e-03
  0.00000000  0.00000000  0.83333333  2.0576e-03
  0.00000000  0.11111111  0.00000000  2.0576e-03
  0.00000000  0.11111111  0.16666667  2.0576e-03
  0.00000000  0.11111111  0.33333333  2.0576e-03
  0.00000000  0.11111111  0.50000000  2.0576e-03
  0.00000000  0.11111111  0.66666667  2.0576e-03
  0.00000000  0.11111111  0.83333333  2.0576e-03
  0.00000000  0.22222222  0.00000000  2.0576e-03
  0.00000000  0.22222222  0.16666667  2.0576e-03
  0.00000000  0.22222222  0.33333333  2.0576e-03
  0.00000000  0.22222222  0.50000000  2.0576e-03
  0.00000000  0.22222222  0.66666667  2.0576e-03
  0.00000000  0.22222222  0.83333333  2.0576e-03
  0.00000000  0.33333333  0.00000000  2.0576e-03
  0.00000000  0.33333333  0.16666667  2.0576e-03
  0.00000000  0.33333333  0.33333333  2.0576e-03
  0.00000000  0.33333333  0.50000000  2.0576e-03
  0.00000000  0.33333333  0.66666667  2.0576e-03
  0.00000000  0.33333333  0.83333333  2.0576e-03
  0.00000000  0.44444444  0.00000000  2.0576e-03
  0.00000000  0.44444444  0.16666667  2.0576e-03
  0.00000000  0.44444444  0.33333333  2.0576e-03
  0.00000000  0.44444444  0.50000000  2.0576e-03
  0.00000000  0.44444444  0.66666667  2.0576e-03
  0.00000000  0.44444444  0.83333333  2.0576e-03
  0.00000000  0.55555556  0.00000000  2.0576e-03
  0.00000000  0.55555556  0.16666667  2.0576e-03
  0.00000000  0.55555556  0.33333333  2.0576e-03
  0.00000000  0.55555556  0.50000000  2.0576e-03
  0.00000000  0.55555556  0.66666667  2.0576e-03
  0.00000000  0.55555556  0.83333333  2.0576e-03
  0.00000000  0.66666667  0.00000000  2.0576e-03
  0.00000000  0.66666667  0.16666667  2.0576e-03
  0.00000000  0.66666667  0.33333333  2.0576e-03
  0.00000000  0.66666667  0.50000000  2.0576e-03
  0.00000000  0.66666667  0.66666667  2.0576e-03
  0.00000000  0.66666667  0.83333333  2.0576e-03
  0.00000000  0.77777778  0.00000000  2.0576e-03
  0.00000000  0.77777778  0.16666667  2.0576e-03
  0.00000000  0.77777778  0.33333333  2.0576e-03
  0.00000000  0.77777778  0.50000000  2.0576e-03
  0.00000000  0.77777778  0.66666667  2.0576e-03
  0.00000000  0.77777778  0.83333333  2.0576e-03
  0.00000000  0.88888889  0.00000000  2.0576e-03
  0.00000000  0.88888889  0.16666667  2.0576e-03
  0.00000000  0.88888889  0.33333333  2.0576e-03
  0.00000000  0.88888889  0.50000000  2.0576e-03
  0.00000000  0.88888889  0.66666667  2.0576e-03
  0.00000000  0.88888889  0.83333333  2.0576e-03
  0.11111111  0.00000000  0.00000000  2.0576e-03
  0.11111111  0.00000000  0.16666667  2.0576e-03
  0.11111111  0.00000000  0.33333333  2.0576e-03
  0.11111111  0.00000000  0.50000000  2.0576e-03
  0.11111111  0.00000000  0.66666667  2.0576e-03
  0.11111111  0.00000000  0.83333333  2.0576e-03
  0.11111111  0.11111111  0.00000000  2.0576e-03
  0.11111111  0.11111111  0.16666667  2.0576e-03
  0.11111111  0.11111111  0.33333333  2.0576e-03
  0.11111111  0.11111111  0.50000000  2.0576e-03
  0.11111111  0.11111111  0.66666667  2.0576e-03
  0.11111111  0.11111111  0.83333333  2.0576e-03
  0.11111111  0.22222222  0.00000000  2.0576e-03
  0.11111111  0.22222222  0.16666667  2.0576e-03
  0.11111111  0.22222222  0.33333333  2.0576e-03
  0.11111111  0.22222222  0.50000000  2.0576e-03
  0.11111111  0.22222222  0.66666667  2.0576e-03
  0.11111111  0.22222222  0.83333333  2.0576e-03
  0.11111111  0.33333333  0.00000000  2.0576e-03
  0.11111111  0.33333333  0.16666667  2.0576e-03
  0.11111111  0.33333333  0.33333333  2.0576e-03
  0.11111111  0.33333333  0.50000000  2.0576e-03
  0.11111111  0.33333333  0.66666667  2.0576e-03
  0.11111111  0.33333333  0.83333333  2.0576e-03
  0.11111111  0.44444444  0.00000000  2.0576e-03
  0.11111111  0.44444444  0.16666667  2.0576e-03
  0.11111111  0.44444444  0.33333333  2.0576e-03
  0.11111111  0.44444444  0.50000000  2.0576e-03
  0.11111111  0.44444444  0.66666667  2.0576e-03
  0.11111111  0.44444444  0.83333333  2.0576e-03
  0.11111111  0.55555556  0.00000000  2.0576e-03
  0.11111111  0.55555556  0.16666667  2.0576e-03
  0.11111111  0.55555556  0.33333333  2.0576e-03
  0.11111111  0.55555556  0.50000000  2.0576e-03
  0.11111111  0.55555556  0.66666667  2.0576e-03
  0.11111111  0.55555556  0.83333333  2.0576e-03
  0.11111111  0.66666667  0.00000000  2.0576e-03
  0.11111111  0.66666667  0.16666667  2.0576e-03
  0.11111111  0.66666667  0.33333333  2.0576e-03
  0.11111111  0.66666667  0.50000000  2.0576e-03
  0.11111111  0.66666667  0.66666667  2.0576e-03
  0.11111111  0.66666667  0.83333333  2.0576e-03
  0.11111111  0.77777778  0.00000000  2.0576e-03
  0.11111111  0.77777778  0.16666667  2.0576e-03
  0.11111111  0.77777778  0.33333333  2.0576e-03
  0.11111111  0.77777778  0.50000000  2.0576e-03
  0.11111111  0.77777778  0.66666667  2.0576e-03
  0.11111111  0.77777778  0.83333333  2.0576e-03
  0.11111111  0.88888889  0.00000000  2.0576e-03
  0.11111111  0.88888889  0.16666667  2.0576e-03
  0.11111111  0.88888889  0.33333333  2.0576e-03
  0.11111111  0.88888889  0.50000000  2.0576e-03
  0.11111111  0.88888889  0.66666667  2.0576e-03
  0.11111111  0.88888889  0.83333333  2.0576e-03
  0.22222222  0.00000000  0.00000000  2.0576e-03
  0.22222222  0.00000000  0.16666667  2.0576e-03
  0.22222222  0.00000000  0.33333333  2.0576e-03
  0.22222222  0.00000000  0.50000000  2.0576e-03
  0.22222222  0.00000000  0.66666667  2.0576e-03
  0.22222222  0.00000000  0.83333333  2.0576e-03
  0.22222222  0.11111111  0.00000000  2.0576e-03
  0.22222222  0.11111111  0.16666667  2.0576e-03
  0.22222222  0.11111111  0.33333333  2.0576e-03
  0.22222222  0.11111111  0.50000000  2.0576e-03
  0.22222222  0.11111111  0.66666667  2.0576e-03
  0.22222222  0.11111111  0.83333333  2.0576e-03
  0.22222222  0.22222222  0.00000000  2.0576e-03
  0.22222222  0.22222222  0.16666667  2.0576e-03
  0.22222222  0.22222222  0.33333333  2.0576e-03
  0.22222222  0.22222222  0.50000000  2.0576e-03
  0.22222222  0.22222222  0.66666667  2.0576e-03
  0.22222222  0.22222222  0.83333333  2.0576e-03
  0.22222222  0.33333333  0.00000000  2.0576e-03
  0.22222222  0.33333333  0.16666667  2.0576e-03
  0.22222222  0.33333333  0.33333333  2.0576e-03
  0.22222222  0.33333333  0.50000000  2.0576e-03
  0.22222222  0.33333333  0.66666667  2.0576e-03
  0.22222222  0.33333333  0.83333333  2.0576e-03
  0.22222222  0.44444444  0.00000000  2.0576e-03
  0.22222222  0.44444444  0.16666667  2.0576e-03
  0.22222222  0.44444444  0.33333333  2.0576e-03
  0.22222222  0.44444444  0.50000000  2.0576e-03
  0.22222222  0.44444444  0.66666667  2.0576e-03
  0.22222222  0.44444444  0.83333333  2.0576e-03
  0.22222222  0.55555556  0.00000000  2.0576e-03
  0.22222222  0.55555556  0.16666667  2.0576e-03
  0.22222222  0.55555556  0.33333333  2.0576e-03
  0.22222222  0.55555556  0.50000000  2.0576e-03
  0.22222222  0.55555556  0.66666667  2.0576e-03
  0.22222222  0.55555556  0.83333333  2.0576e-03
  0.22222222  0.66666667  0.00000000  2.0576e-03
  0.22222222  0.66666667  0.16666667  2.0576e-03
  0.22222222  0.66666667  0.33333333  2.0576e-03
  0.22222222  0.66666667  0.50000000  2.0576e-03
  0.22222222  0.66666667  0.66666667  2.0576e-03
  0.22222222  0.66666667  0.83333333  2.0576e-03
  0.22222222  0.77777778  0.00000000  2.0576e-03
  0.22222222  0.77777778  0.16666667  2.0576e-03
  0.22222222  0.77777778  0.33333333  2.0576e-03
  0.22222222  0.77777778  0.50000000  2.0576e-03
  0.22222222  0.77777778  0.66666667  2.0576e-03
  0.22222222  0.77777778  0.83333333  2.0576e-03
  0.22222222  0.88888889  0.00000000  2.0576e-03
  0.22222222  0.88888889  0.16666667  2.0576e-03
  0.22222222  0.88888889  0.33333333  2.0576e-03
  0.22222222  0.88888889  0.50000000  2.0576e-03
  0.22222222  0.88888889  0.66666667  2.0576e-03
  0.22222222  0.88888889  0.83333333  2.0576e-03
  0.33333333  0.00000000  0.00000000  2.0576e-03
  0.33333333  0.00000000  0.16666667  2.0576e-03
  0.33333333  0.00000000  0.33333333  2.0576e-03
  0.33333333  0.00000000  0.50000000  2.0576e-03
  0.33333333  0.00000000  0.66666667  2.0576e-03
  0.33333333  0.00000000  0.83333333  2.0576e-03
  0.33333333  0.11111111  0.00000000  2.0576e-03
  0.33333333  0.11111111  0.16666667  2.0576e-03
  0.33333333  0.11111111  0.33333333  2.0576e-03
  0.33333333  0.11111111  0.50000000  2.0576e-03
  0.33333333  0.11111111  0.66666667  2.0576e-03
  0.33333333  0.11111111  0.83333333  2.0576e-03
  0.33333333  0.22222222  0.00000000  2.0576e-03
  0.33333333  0.22222222  0.16666667  2.0576e-03
  0.33333333  0.22222222  0.33333333  2.0576e-03
  0.33333333  0.22222222  0.50000000  2.0576e-03
  0.33333333  0.22222222  0.66666667  2.0576e-03
  0.33333333  0.22222222  0.83333333  2.0576e-03
  0.33333333  0.33333333  0.00000000  2.0576e-03
  0.33333333  0.33333333  0.16666667  2.0576e-03
  0.33333333  0.33333333  0.33333333  2.0576e-03
  0.33333333  0.33333333  0.50000000  2.0576e-03
  0.33333333  0.33333333  0.66666667  2.0576e-03
  0.33333333  0.33333333  0.83333333  2.0576e-03
  0.33333333  0.44444444  0.00000000  2.0576e-03
  0.33333333  0.44444444  0.16666667  2.0576e-03
  0.33333333  0.44444444  0.33333333  2.0576e-03
  0.33333333  0.44444444  0.50000000  2.0576e-03
  0.33333333  0.44444444  0.66666667  2.0576e-03
  0.33333333  0.44444444  0.83333333  2.0576e-03
  0.33333333  0.55555556  0.00000000  2.0576e-03
  0.33333333  0.55555556  0.16666667  2.0576e-03
  0.33333333  0.55555556  0.33333333  2.0576e-03
  0.33333333  0.55555556  0.50000000  2.0576e-03
  0.33333333  0.55555556  0.66666667  2.0576e-03
  0.33333333  0.55555556  0.83333333  2.0576e-03
  0.33333333  0.66666667  0.00000000  2.0576e-03
  0.33333333  0.66666667  0.16666667  2.0576e-03
  0.33333333  0.66666667  0.33333333  2.0576e-03
  0.33333333  0.66666667  0.50000000  2.0576e-03
  0.33333333  0.66666667  0.66666667  2.0576e-03
  0.33333333  0.66666667  0.83333333  2.0576e-03
  0.33333333  0.77777778  0.00000000  2.0576e-03
  0.33333333  0.77777778  0.16666667  2.0576e-03
  0.33333333  0.77777778  0.33333333  2.0576e-03
  0.33333333  0.77777778  0.50000000  2.0576e-03
  0.33333333  0.77777778  0.66666667  2.0576e-03
  0.33333333  0.77777778  0.83333333  2.0576e-03
  0.33333333  0.88888889  0.00000000  2.0576e-03
  0.33333333  0.88888889  0.16666667  2.0576e-03
  0.33333333  0.88888889  0.33333333  2.0576e-03
  0.33333333  0.88888889  0.50000000  2.0576e-03
  0.33333333  0.88888889  0.66666667  2.0576e-03
  0.33333333  0.88888889  0.83333333  2.0576e-03
  0.44444444  0.00000000  0.00000000  2.0576e-03
  0.44444444  0.00000000  0.16666667  2.0576e-03
  0.44444444  0.00000000  0.33333333  2.0576e-03
  0.44444444  0.00000000  0.50000000  2.0576e-03
  0.44444444  0.00000000  0.66666667  2.0576e-03
  0.44444444  0.00000000  0.83333333  2.0576e-03
  0.44444444  0.11111111  0.00000000  2.0576e-03
  0.44444444  0.11111111  0.16666667  2.0576e-03
  0.44444444  0.11111111  0.33333333  2.0576e-03
  0.44444444  0.11111111  0.50000000  2.0576e-03
  0.44444444  0.11111111  0.66666667  2.0576e-03
  0.44444444  0.11111111  0.83333333  2.0576e-03
  0.44444444  0.22222222  0.00000000  2.0576e-03
  0.44444444  0.22222222  0.16666667  2.0576e-03
  0.44444444  0.22222222  0.33333333  2.0576e-03
  0.44444444  0.22222222  0.50000000  2.0576e-03
  0.44444444  0.22222222  0.66666667  2.0576e-03
  0.44444444  0.22222222  0.83333333  2.0576e-03
  0.44444444  0.33333333  0.00000000  2.0576e-03
  0.44444444  0.33333333  0.16666667  2.0576e-03
  0.44444444  0.33333333  0.33333333  2.0576e-03
  0.44444444  0.33333333  0.50000000  2.0576e-03
  0.44444444  0.33333333  0.66666667  2.0576e-03
  0.44444444  0.33333333  0.83333333  2.0576e-03
  0.44444444  0.44444444  0.00000000  2.0576e-03
  0.44444444  0.44444444  0.16666667  2.0576e-03
  0.44444444  0.44444444  0.33333333  2.0576e-03
  0.44444444  0.44444444  0.50000000  2.0576e-03
  0.44444444  0.44444444  0.66666667  2.0576e-03
  0.44444444  0.44444444  0.83333333  2.0576e-03
  0.44444444  0.55555556  0.00000000  2.0576e-03
  0.44444444  0.55555556  0.16666667  2.0576e-03
  0.44444444  0.55555556  0.33333333  2.0576e-03
  0.44444444  0.55555556  0.50000000  2.0576e-03
  0.44444444  0.55555556  0.66666667  2.0576e-03
  0.44444444  0.55555556  0.83333333  2.0576e-03
  0.44444444  0.66666667  0.00000000  2.0576e-03
  0.44444444  0.66666667  0.16666667  2.0576e-03
  0.44444444  0.66666667  0.33333333  2.0576e-03
  0.44444444  0.66666667  0.50000000  2.0576e-03
  0.44444444  0.66666667  0.66666667  2.0576e-03
  0.44444444  0.66666667  0.83333333  2.0576e-03
  0.44444444  0.77777778  0.00000000  2.0576e-03
  0.44444444  0.77777778  0.16666667  2.0576e-03
  0.44444444  0.77777778  0.33333333  2.0576e-03
  0.44444444  0.77777778  0.50000000  2.0576e-03
  0.44444444  0.77777778  0.66666667  2.0576e-03
  0.44444444  0.77777778  0.83333333  2.0576e-03
  0.44444444  0.88888889  0.00000000  2.0576e-03
  0.44444444  0.88888889  0.16666667  2.0576e-03
  0.44444444  0.88888889  0.33333333  2.0576e-03
  0.44444444  0.88888889  0.50000000  2.0576e-03
  0.44444444  0.88888889  0.66666667  2.0576e-03
  0.44444444  0.88888889  0.83333333  2.0576e-03
  0.55555556  0.00000000  0.00000000  2.0576e-03
  0.55555556  0.00000000  0.16666667  2.0576e-03
  0.55555556  0.00000000  0.33333333  2.0576e-03
  0.55555556  0.00000000  0.50000000  2.0576e-03
  0.55555556  0.00000000  0.66666667  2.0576e-03
  0.55555556  0.00000000  0.83333333  2.0576e-03
  0.55555556  0.11111111  0.00000000  2.0576e-03
  0.55555556  0.11111111  0.16666667  2.0576e-03
  0.55555556  0.11111111  0.33333333  2.0576e-03
  0.55555556  0.11111111  0.50000000  2.0576e-03
  0.55555556  0.11111111  0.66666667  2.0576e-03
  0.55555556  0.11111111  0.83333333  2.0576e-03
  0.55555556  0.22222222  0.00000000  2.0576e-03
  0.55555556  0.22222222  0.16666667  2.0576e-03
  0.55555556  0.22222222  0.33333333  2.0576e-03
  0.55555556  0.22222222  0.50000000  2.0576e-03
  0.55555556  0.22222222  0.66666667  2.0576e-03
  0.55555556  0.22222222  0.83333333  2.0576e-03
  0.55555556  0.33333333  0.00000000  2.0576e-03
  0.55555556  0.33333333  0.16666667  2.0576e-03
  0.55555556  0.33333333  0.33333333  2.0576e-03
  0.55555556  0.33333333  0.50000000  2.0576e-03
  0.55555556  0.33333333  0.66666667  2.0576e-03
  0.55555556  0.33333333  0.83333333  2.0576e-03
  0.55555556  0.44444444  0.00000000  2.0576e-03
  0.55555556  0.44444444  0.16666667  2.0576e-03
  0.55555556  0.44444444  0.33333333  2.0576e-03
  0.55555556  0.44444444  0.50000000  2.0576e-03
  0.55555556  0.44444444  0.66666667  2.0576e-03
  0.55555556  0.44444444  0.83333333  2.0576e-03
  0.55555556  0.55555556  0.00000000  2.0576e-03
  0.55555556  0.55555556  0.16666667  2.0576e-03
  0.55555556  0.55555556  0.33333333  2.0576e-03
  0.55555556  0.55555556  0.50000000  2.0576e-03
  0.55555556  0.55555556  0.66666667  2.0576e-03
  0.55555556  0.55555556  0.83333333  2.0576e-03
  0.55555556  0.66666667  0.00000000  2.0576e-03
  0.55555556  0.66666667  0.16666667  2.0576e-03
  0.55555556  0.66666667  0.33333333  2.0576e-03
  0.55555556  0.66666667  0.50000000  2.0576e-03
  0.55555556  0.66666667  0.66666667  2.0576e-03
  0.55555556  0.66666667  0.83333333  2.0576e-03
  0.55555556  0.77777778  0.00000000  2.0576e-03
  0.55555556  0.77777778  0.16666667  2.0576e-03
  0.55555556  0.77777778  0.33333333  2.0576e-03
  0.55555556  0.77777778  0.50000000  2.0576e-03
  0.55555556  0.77777778  0.66666667  2.0576e-03
  0.55555556  0.77777778  0.83333333  2.0576e-03
  0.55555556  0.88888889  0.00000000  2.0576e-03
  0.55555556  0.88888889  0.16666667  2.0576e-03
  0.55555556  0.88888889  0.33333333  2.0576e-03
  0.55555556  0.88888889  0.50000000  2.0576e-03
  0.55555556  0.88888889  0.66666667  2.0576e-03
  0.55555556  0.88888889  0.83333333  2.0576e-03
  0.66666667  0.00000000  0.00000000  2.0576e-03
  0.66666667  0.00000000  0.16666667  2.0576e-03
  0.66666667  0.00000000  0.33333333  2.0576e-03
  0.66666667  0.00000000  0.50000000  2.0576e-03
  0.66666667  0.00000000  0.66666667  2.0576e-03
  0.66666667  0.00000000  0.83333333  2.0576e-03
  0.66666667  0.11111111  0.00000000  2.0576e-03
  0.66666667  0.11111111  0.16666667  2.0576e-03
  0.66666667  0.11111111  0.33333333  2.0576e-03
  0.66666667  0.11111111  0.50000000  2.0576e-03
  0.66666667  0.11111111  0.66666667  2.0576e-03
  0.66666667  0.11111111  0.83333333  2.0576e-03
  0.66666667  0.22222222  0.00000000  2.0576e-03
  0.66666667  0.22222222  0.16666667  2.0576e-03
  0.66666667  0.22222222  0.33333333  2.0576e-03
  0.66666667  0.22222222  0.50000000  2.0576e-03
  0.66666667  0.22222222  0.66666667  2.0576e-03
  0.66666667  0.22222222  0.83333333  2.0576e-03
  0.66666667  0.33333333  0.00000000  2.0576e-03
  0.66666667  0.33333333  0.16666667  2.0576e-03
  0.66666667  0.33333333  0.33333333  2.0576e-03
  0.66666667  0.33333333  0.50000000  2.0576e-03
  0.66666667  0.33333333  0.66666667  2.0576e-03
  0.66666667  0.33333333  0.83333333  2.0576e-03
  0.66666667  0.44444444  0.00000000  2.0576e-03
  0.66666667  0.44444444  0.16666667  2.0576e-03
  0.66666667  0.44444444  0.33333333  2.0576e-03
  0.66666667  0.44444444  0.50000000  2.0576e-03
  0.66666667  0.44444444  0.66666667  2.0576e-03
  0.66666667  0.44444444  0.83333333  2.0576e-03
  0.66666667  0.55555556  0.00000000  2.0576e-03
  0.66666667  0.55555556  0.16666667  2.0576e-03
  0.66666667  0.55555556  0.33333333  2.0576e-03
  0.66666667  0.55555556  0.50000000  2.0576e-03
  0.66666667  0.55555556  0.66666667  2.0576e-03
  0.66666667  0.55555556  0.83333333  2.0576e-03
  0.66666667  0.66666667  0.00000000  2.0576e-03
  0.66666667  0.66666667  0.16666667  2.0576e-03
  0.66666667  0.66666667  0.33333333  2.0576e-03
  0.66666667  0.66666667  0.50000000  2.0576e-03
  0.66666667  0.66666667  0.66666667  2.0576e-03
  0.66666667  0.66666667  0.83333333  2.0576e-03
  0.66666667  0.77777778  0.00000000  2.0576e-03
  0.66666667  0.77777778  0.16666667  2.0576e-03
  0.66666667  0.77777778  0.33333333  2.0576e-03
  0.66666667  0.77777778  0.50000000  2.0576e-03
  0.66666667  0.77777778  0.66666667  2.0576e-03
  0.66666667  0.77777778  0.83333333  2.0576e-03
  0.66666667  0.88888889  0.00000000  2.0576e-03
  0.66666667  0.88888889  0.16666667  2.0576e-03
  0.66666667  0.88888889  0.33333333  2.0576e-03
  0.66666667  0.88888889  0.50000000  2.0576e-03
  0.66666667  0.88888889  0.66666667  2.0576e-03
  0.66666667  0.88888889  0.83333333  2.0576e-03
  0.77777778  0.00000000  0.00000000  2.0576e-03
  0.77777778  0.00000000  0.16666667  2.0576e-03
  0.77777778  0.00000000  0.33333333  2.0576e-03
  0.77777778  0.00000000  0.50000000  2.0576e-03
  0.77777778  0.00000000  0.66666667  2.0576e-03
  0.77777778  0.00000000  0.83333333  2.0576e-03
  0.77777778  0.11111111  0.00000000  2.0576e-03
  0.77777778  0.11111111  0.16666667  2.0576e-03
  0.77777778  0.11111111  0.33333333  2.0576e-03
  0.77777778  0.11111111  0.50000000  2.0576e-03
  0.77777778  0.11111111  0.66666667  2.0576e-03
  0.77777778  0.11111111  0.83333333  2.0576e-03
  0.77777778  0.22222222  0.00000000  2.0576e-03
  0.77777778  0.22222222  0.16666667  2.0576e-03
  0.77777778  0.22222222  0.33333333  2.0576e-03
  0.77777778  0.22222222  0.50000000  2.0576e-03
  0.77777778  0.22222222  0.66666667  2.0576e-03
  0.77777778  0.22222222  0.83333333  2.0576e-03
  0.77777778  0.33333333  0.00000000  2.0576e-03
  0.77777778  0.33333333  0.16666667  2.0576e-03
  0.77777778  0.33333333  0.33333333  2.0576e-03
  0.77777778  0.33333333  0.50000000  2.0576e-03
  0.77777778  0.33333333  0.66666667  2.0576e-03
  0.77777778  0.33333333  0.83333333  2.0576e-03
  0.77777778  0.44444444  0.00000000  2.0576e-03
  0.77777778  0.44444444  0.16666667  2.0576e-03
  0.77777778  0.44444444  0.33333333  2.0576e-03
  0.77777778  0.44444444  0.50000000  2.0576e-03
  0.77777778  0.44444444  0.66666667  2.0576e-03
  0.77777778  0.44444444  0.83333333  2.0576e-03
  0.77777778  0.55555556  0.00000000  2.0576e-03
  0.77777778  0.55555556  0.16666667  2.0576e-03
  0.77777778  0.55555556  0.33333333  2.0576e-03
  0.77777778  0.55555556  0.50000000  2.0576e-03
  0.77777778  0.55555556  0.66666667  2.0576e-03
  0.77777778  0.55555556  0.83333333  2.0576e-03
  0.77777778  0.66666667  0.00000000  2.0576e-03
  0.77777778  0.66666667  0.16666667  2.0576e-03
  0.77777778  0.66666667  0.33333333  2.0576e-03
  0.77777778  0.66666667  0.50000000  2.0576e-03
  0.77777778  0.66666667  0.66666667  2.0576e-03
  0.77777778  0.66666667  0.83333333  2.0576e-03
  0.77777778  0.77777778  0.00000000  2.0576e-03
  0.77777778  0.77777778  0.16666667  2.0576e-03
  0.77777778  0.77777778  0.33333333  2.0576e-03
  0.77777778  0.77777778  0.50000000  2.0576e-03
  0.77777778  0.77777778  0.66666667  2.0576e-03
  0.77777778  0.77777778  0.83333333  2.0576e-03
  0.77777778  0.88888889  0.00000000  2.0576e-03
  0.77777778  0.88888889  0.16666667  2.0576e-03
  0.77777778  0.88888889  0.33333333  2.0576e-03
  0.77777778  0.88888889  0.50000000  2.0576e-03
  0.77777778  0.88888889  0.66666667  2.0576e-03
  0.77777778  0.88888889  0.83333333  2.0576e-03
  0.88888889  0.00000000  0.00000000  2.0576e-03
  0.88888889  0.00000000  0.16666667  2.0576e-03
  0.88888889  0.00000000  0.33333333  2.0576e-03
  0.88888889  0.00000000  0.50000000  2.0576e-03
  0.88888889  0.00000000  0.66666667  2.0576e-03
  0.88888889  0.00000000  0.83333333  2.0576e-03
  0.88888889  0.11111111  0.00000000  2.0576e-03
  0.88888889  0.11111111  0.16666667  2.0576e-03
  0.88888889  0.11111111  0.33333333  2.0576e-03
  0.88888889  0.11111111  0.50000000  2.0576e-03
  0.88888889  0.11111111  0.66666667  2.0576e-03
  0.88888889  0.11111111  0.83333333  2.0576e-03
  0.88888889  0.22222222  0.00000000  2.0576e-03
  0.88888889  0.22222222  0.16666667  2.0576e-03
  0.88888889  0.22222222  0.33333333  2.0576e-03
  0.88888889  0.22222222  0.50000000  2.0576e-03
  0.88888889  0.22222222  0.66666667  2.0576e-03
  0.88888889  0.22222222  0.83333333  2.0576e-03
  0.88888889  0.33333333  0.00000000  2.0576e-03
  0.88888889  0.33333333  0.16666667  2.0576e-03
  0.88888889  0.33333333  0.33333333  2.0576e-03
  0.88888889  0.33333333  0.50000000  2.0576e-03
  0.88888889  0.33333333  0.66666667  2.0576e-03
  0.88888889  0.33333333  0.83333333  2.0576e-03
  0.88888889  0.44444444  0.00000000  2.0576e-03
  0.88888889  0.44444444  0.16666667  2.0576e-03
  0.88888889  0.44444444  0.33333333  2.0576e-03
  0.88888889  0.44444444  0.50000000  2.0576e-03
  0.88888889  0.44444444  0.66666667  2.0576e-03
  0.88888889  0.44444444  0.83333333  2.0576e-03
  0.88888889  0.55555556  0.00000000  2.0576e-03
  0.88888889  0.55555556  0.16666667  2.0576e-03
  0.88888889  0.55555556  0.33333333  2.0576e-03
  0.88888889  0.55555556  0.50000000  2.0576e-03
  0.88888889  0.55555556  0.66666667  2.0576e-03
  0.88888889  0.55555556  0.83333333  2.0576e-03
  0.88888889  0.66666667  0.00000000  2.0576e-03
  0.88888889  0.66666667  0.16666667  2.0576e-03
  0.88888889  0.66666667  0.33333333  2.0576e-03
  0.88888889  0.66666667  0.50000000  2.0576e-03
  0.88888889  0.66666667  0.66666667  2.0576e-03
  0.88888889  0.66666667  0.83333333  2.0576e-03
  0.88888889  0.77777778  0.00000000  2.0576e-03
  0.88888889  0.77777778  0.16666667  2.0576e-03
  0.88888889  0.77777778  0.33333333  2.0576e-03
  0.88888889  0.77777778  0.50000000  2.0576e-03
  0.88888889  0.77777778  0.66666667  2.0576e-03
  0.88888889  0.77777778  0.83333333  2.0576e-03
  0.88888889  0.88888889  0.00000000  2.0576e-03
  0.88888889  0.88888889  0.16666667  2.0576e-03
  0.88888889  0.88888889  0.33333333  2.0576e-03
  0.88888889  0.88888889  0.50000000  2.0576e-03
  0.88888889  0.88888889  0.66666667  2.0576e-03
  0.88888889  0.88888889  0.83333333  2.0576e-03
