&CONTROL
  calculation = 'bands',
  prefix = 'hea',
  pseudo_dir = '../../pseudo/',
  verbosity = 'low',
/
&SYSTEM
  degauss = 0.15,
  ecutrho = 340.0,
  ecutwfc = 85.0,
  ibrav = 0,
  nbnd = 200,
  nosym = .FALSE.,
  occupations = 'smearing',
  smearing = 'gauss',
  nat = 20,
  ntyp = 5,
/
&ELECTRONS
  conv_thr = 1d-10,
  electron_maxstep = 80,
  mixing_beta = 0.7,
  mixing_mode = 'local-TF',
/
&IONS
/
&CELL
/
ATOMIC_SPECIES
  Hf  178.4900 Hf.upf
  Nb  92.9064 Nb.upf
  Ta  180.9479 Ta.upf
  Ti  47.8670 Ti.upf
  Zr  91.2240 Zr.upf
ATOMIC_POSITIONS crystal
  Hf 0.602374721200 0.602374964600 0.898493720700
  Hf 0.395912169700 0.395912426200 0.844599104200
  Zr 0.599245661600 0.599245455300 0.149289676800
  Zr 0.805828756200 0.805828497300 0.459421710600
  Ta 0.798606558700 0.798606440000 0.196018015600
  Ta 0.397615154900 0.397615109100 0.103866872300
  Ta 0.599273963700 0.599273721000 0.401967271700
  Ta 0.205297489700 0.205297172400 0.302727352800
  Ta 0.001135698800 0.001135492500 0.251026491200
  Ta -0.003711367600 -0.003711132900 0.750507508600
  Ta 0.803999748300 0.803999913600 0.949592019700
  Ti 0.402742004800 0.402742032000 0.596449713500
  Ti 0.200048572500 0.200048664100 0.048877672400
  Nb 0.795061089800 0.795061378700 0.695827899600
  Nb 0.004098958600 0.004099020500 0.002638745500
  Nb -0.000444348000 -0.000444485900 0.500722711200
  Nb 0.195881210300 0.195881489500 0.800922862300
  Nb 0.398904011900 0.398903783500 0.348031108600
  Nb 0.199909391200 0.199909383700 0.551092330100
  Nb 0.598220553900 0.598220674500 0.647927212800
CELL_PARAMETERS angstrom
      6.6785274410     -0.0012946750     -3.5788395780
      5.2580535120      4.1177116620     -3.5788476090
     -0.0191833680     -0.0065943200     10.6707297990
K_POINTS crystal
464
    0.00000000  0.00000000  0.00000000 1
    0.00000000  0.00666667  0.00000000 1
    0.00000000  0.01333333  0.00000000 1
    0.00000000  0.02000000  0.00000000 1
    0.00000000  0.02666667  0.00000000 1
    0.00000000  0.03333333  0.00000000 1
    0.00000000  0.04000000  0.00000000 1
    0.00000000  0.04666667  0.00000000 1
    0.00000000  0.05333333  0.00000000 1
    0.00000000  0.06000000  0.00000000 1
    0.00000000  0.06666667  0.00000000 1
    0.00000000  0.07333333  0.00000000 1
    0.00000000  0.08000000  0.00000000 1
    0.00000000  0.08666667  0.00000000 1
    0.00000000  0.09333333  0.00000000 1
    0.00000000  0.10000000  0.00000000 1
    0.00000000  0.10666667  0.00000000 1
    0.00000000  0.11333333  0.00000000 1
    0.00000000  0.12000000  0.00000000 1
    0.00000000  0.12666667  0.00000000 1
    0.00000000  0.13333333  0.00000000 1
    0.00000000  0.14000000  0.00000000 1
    0.00000000  0.14666667  0.00000000 1
    0.00000000  0.15333333  0.00000000 1
    0.00000000  0.16000000  0.00000000 1
    0.00000000  0.16666667  0.00000000 1
    0.00000000  0.17333333  0.00000000 1
    0.00000000  0.18000000  0.00000000 1
    0.00000000  0.18666667  0.00000000 1
    0.00000000  0.19333333  0.00000000 1
    0.00000000  0.20000000  0.00000000 1
    0.00000000  0.20666667  0.00000000 1
    0.00000000  0.21333333  0.00000000 1
    0.00000000  0.22000000  0.00000000 1
    0.00000000  0.22666667  0.00000000 1
    0.00000000  0.23333333  0.00000000 1
    0.00000000  0.24000000  0.00000000 1
    0.00000000  0.24666667  0.00000000 1
    0.00000000  0.25333333  0.00000000 1
    0.00000000  0.26000000  0.00000000 1
    0.00000000  0.26666667  0.00000000 1
    0.00000000  0.27333333  0.00000000 1
    0.00000000  0.28000000  0.00000000 1
    0.00000000  0.28666667  0.00000000 1
    0.00000000  0.29333333  0.00000000 1
    0.00000000  0.30000000  0.00000000 1
    0.00000000  0.30666667  0.00000000 1
    0.00000000  0.31333333  0.00000000 1
    0.00000000  0.32000000  0.00000000 1
    0.00000000  0.32666667  0.00000000 1
    0.00000000  0.33333333  0.00000000 1
    0.00000000  0.34000000  0.00000000 1
    0.00000000  0.34666667  0.00000000 1
    0.00000000  0.35333333  0.00000000 1
    0.00000000  0.36000000  0.00000000 1
    0.00000000  0.36666667  0.00000000 1
    0.00000000  0.37333333  0.00000000 1
    0.00000000  0.38000000  0.00000000 1
    0.00000000  0.38666667  0.00000000 1
    0.00000000  0.39333333  0.00000000 1
    0.00000000  0.40000000  0.00000000 1
    0.00000000  0.40666667  0.00000000 1
    0.00000000  0.41333333  0.00000000 1
    0.00000000  0.42000000  0.00000000 1
    0.00000000  0.42666667  0.00000000 1
    0.00000000  0.43333333  0.00000000 1
    0.00000000  0.44000000  0.00000000 1
    0.00000000  0.44666667  0.00000000 1
    0.00000000  0.45333333  0.00000000 1
    0.00000000  0.46000000  0.00000000 1
    0.00000000  0.46666667  0.00000000 1
    0.00000000  0.47333333  0.00000000 1
    0.00000000  0.48000000  0.00000000 1
    0.00000000  0.48666667  0.00000000 1
    0.00000000  0.49333333  0.00000000 1
    0.00000000  0.50000000  0.00000000 1
    -0.00394366  0.50309859  0.00000000 1
    -0.00788732  0.50619718  0.00000000 1
    -0.01183099  0.50929577  0.00000000 1
    -0.01577465  0.51239437  0.00000000 1
    -0.01971831  0.51549296  0.00000000 1
    -0.02366197  0.51859155  0.00000000 1
    -0.02760563  0.52169014  0.00000000 1
    -0.03154930  0.52478873  0.00000000 1
    -0.03549296  0.52788732  0.00000000 1
    -0.03943662  0.53098592  0.00000000 1
    -0.04338028  0.53408451  0.00000000 1
    -0.04732394  0.53718310  0.00000000 1
    -0.05126761  0.54028169  0.00000000 1
    -0.05521127  0.54338028  0.00000000 1
    -0.05915493  0.54647887  0.00000000 1
    -0.06309859  0.54957746  0.00000000 1
    -0.06704225  0.55267606  0.00000000 1
    -0.07098592  0.55577465  0.00000000 1
    -0.07492958  0.55887324  0.00000000 1
    -0.07887324  0.56197183  0.00000000 1
    -0.08281690  0.56507042  0.00000000 1
    -0.08676056  0.56816901  0.00000000 1
    -0.09070423  0.57126761  0.00000000 1
    -0.09464789  0.57436620  0.00000000 1
    -0.09859155  0.57746479  0.00000000 1
    -0.10253521  0.58056338  0.00000000 1
    -0.10647887  0.58366197  0.00000000 1
    -0.11042254  0.58676056  0.00000000 1
    -0.11436620  0.58985915  0.00000000 1
    -0.11830986  0.59295775  0.00000000 1
    -0.12225352  0.59605634  0.00000000 1
    -0.12619718  0.59915493  0.00000000 1
    -0.13014085  0.60225352  0.00000000 1
    -0.13408451  0.60535211  0.00000000 1
    -0.13802817  0.60845070  0.00000000 1
    -0.14197183  0.61154930  0.00000000 1
    -0.14591549  0.61464789  0.00000000 1
    -0.14985915  0.61774648  0.00000000 1
    -0.15380282  0.62084507  0.00000000 1
    -0.15774648  0.62394366  0.00000000 1
    -0.16169014  0.62704225  0.00000000 1
    -0.16563380  0.63014085  0.00000000 1
    -0.16957746  0.63323944  0.00000000 1
    -0.17352113  0.63633803  0.00000000 1
    -0.17746479  0.63943662  0.00000000 1
    -0.18140845  0.64253521  0.00000000 1
    -0.18535211  0.64563380  0.00000000 1
    -0.18929577  0.64873239  0.00000000 1
    -0.19323944  0.65183099  0.00000000 1
    -0.19718310  0.65492958  0.00000000 1
    -0.20112676  0.65802817  0.00000000 1
    -0.20507042  0.66112676  0.00000000 1
    -0.20901408  0.66422535  0.00000000 1
    -0.21295775  0.66732394  0.00000000 1
    -0.21690141  0.67042254  0.00000000 1
    -0.22084507  0.67352113  0.00000000 1
    -0.22478873  0.67661972  0.00000000 1
    -0.22873239  0.67971831  0.00000000 1
    -0.23267606  0.68281690  0.00000000 1
    -0.23661972  0.68591549  0.00000000 1
    -0.24056338  0.68901408  0.00000000 1
    -0.24450704  0.69211268  0.00000000 1
    -0.24845070  0.69521127  0.00000000 1
    -0.25239437  0.69830986  0.00000000 1
    -0.25633803  0.70140845  0.00000000 1
    -0.26028169  0.70450704  0.00000000 1
    -0.26422535  0.70760563  0.00000000 1
    -0.26816901  0.71070423  0.00000000 1
    -0.27211268  0.71380282  0.00000000 1
    -0.27605634  0.71690141  0.00000000 1
    -0.28000000  0.72000000  0.00000000 1
    -0.29047619  0.70952381  0.00000000 1
    -0.30095238  0.69904762  0.00000000 1
    -0.31142857  0.68857143  0.00000000 1
    -0.32190476  0.67809524  0.00000000 1
    -0.33238095  0.66761905  0.00000000 1
    -0.34285714  0.65714286  0.00000000 1
    -0.35333333  0.64666667  0.00000000 1
    -0.36380952  0.63619048  0.00000000 1
    -0.37428571  0.62571429  0.00000000 1
    -0.38476190  0.61523810  0.00000000 1
    -0.39523810  0.60476190  0.00000000 1
    -0.40571429  0.59428571  0.00000000 1
    -0.41619048  0.58380952  0.00000000 1
    -0.42666667  0.57333333  0.00000000 1
    -0.43714286  0.56285714  0.00000000 1
    -0.44761905  0.55238095  0.00000000 1
    -0.45809524  0.54190476  0.00000000 1
    -0.46857143  0.53142857  0.00000000 1
    -0.47904762  0.52095238  0.00000000 1
    -0.48952381  0.51047619  0.00000000 1
    -0.50000000  0.50000000  0.00000000 1
    -0.48979592  0.48979592  0.00000000 1
    -0.47959184  0.47959184  0.00000000 1
    -0.46938776  0.46938776  0.00000000 1
    -0.45918367  0.45918367  0.00000000 1
    -0.44897959  0.44897959  0.00000000 1
    -0.43877551  0.43877551  0.00000000 1
    -0.42857143  0.42857143  0.00000000 1
    -0.41836735  0.41836735  0.00000000 1
    -0.40816327  0.40816327  0.00000000 1
    -0.39795918  0.39795918  0.00000000 1
    -0.38775510  0.38775510  0.00000000 1
    -0.37755102  0.37755102  0.00000000 1
    -0.36734694  0.36734694  0.00000000 1
    -0.35714286  0.35714286  0.00000000 1
    -0.34693878  0.34693878  0.00000000 1
    -0.33673469  0.33673469  0.00000000 1
    -0.32653061  0.32653061  0.00000000 1
    -0.31632653  0.31632653  0.00000000 1
    -0.30612245  0.30612245  0.00000000 1
    -0.29591837  0.29591837  0.00000000 1
    -0.28571429  0.28571429  0.00000000 1
    -0.27551020  0.27551020  0.00000000 1
    -0.26530612  0.26530612  0.00000000 1
    -0.25510204  0.25510204  0.00000000 1
    -0.24489796  0.24489796  0.00000000 1
    -0.23469388  0.23469388  0.00000000 1
    -0.22448980  0.22448980  0.00000000 1
    -0.21428571  0.21428571  0.00000000 1
    -0.20408163  0.20408163  0.00000000 1
    -0.19387755  0.19387755  0.00000000 1
    -0.18367347  0.18367347  0.00000000 1
    -0.17346939  0.17346939  0.00000000 1
    -0.16326531  0.16326531  0.00000000 1
    -0.15306122  0.15306122  0.00000000 1
    -0.14285714  0.14285714  0.00000000 1
    -0.13265306  0.13265306  0.00000000 1
    -0.12244898  0.12244898  0.00000000 1
    -0.11224490  0.11224490  0.00000000 1
    -0.10204082  0.10204082  0.00000000 1
    -0.09183673  0.09183673  0.00000000 1
    -0.08163265  0.08163265  0.00000000 1
    -0.07142857  0.07142857  0.00000000 1
    -0.06122449  0.06122449  0.00000000 1
    -0.05102041  0.05102041  0.00000000 1
    -0.04081633  0.04081633  0.00000000 1
    -0.03061224  0.03061224  0.00000000 1
    -0.02040816  0.02040816  0.00000000 1
    -0.01020408  0.01020408  0.00000000 1
    0.00000000  0.00000000  0.00000000 1
    -0.01162791  0.01162791  0.01162791 1
    -0.02325581  0.02325581  0.02325581 1
    -0.03488372  0.03488372  0.03488372 1
    -0.04651163  0.04651163  0.04651163 1
    -0.05813953  0.05813953  0.05813953 1
    -0.06976744  0.06976744  0.06976744 1
    -0.08139535  0.08139535  0.08139535 1
    -0.09302326  0.09302326  0.09302326 1
    -0.10465116  0.10465116  0.10465116 1
    -0.11627907  0.11627907  0.11627907 1
    -0.12790698  0.12790698  0.12790698 1
    -0.13953488  0.13953488  0.13953488 1
    -0.15116279  0.15116279  0.15116279 1
    -0.16279070  0.16279070  0.16279070 1
    -0.17441860  0.17441860  0.17441860 1
    -0.18604651  0.18604651  0.18604651 1
    -0.19767442  0.19767442  0.19767442 1
    -0.20930233  0.20930233  0.20930233 1
    -0.22093023  0.22093023  0.22093023 1
    -0.23255814  0.23255814  0.23255814 1
    -0.24418605  0.24418605  0.24418605 1
    -0.25581395  0.25581395  0.25581395 1
    -0.26744186  0.26744186  0.26744186 1
    -0.27906977  0.27906977  0.27906977 1
    -0.29069767  0.29069767  0.29069767 1
    -0.30232558  0.30232558  0.30232558 1
    -0.31395349  0.31395349  0.31395349 1
    -0.32558140  0.32558140  0.32558140 1
    -0.33720930  0.33720930  0.33720930 1
    -0.34883721  0.34883721  0.34883721 1
    -0.36046512  0.36046512  0.36046512 1
    -0.37209302  0.37209302  0.37209302 1
    -0.38372093  0.38372093  0.38372093 1
    -0.39534884  0.39534884  0.39534884 1
    -0.40697674  0.40697674  0.40697674 1
    -0.41860465  0.41860465  0.41860465 1
    -0.43023256  0.43023256  0.43023256 1
    -0.44186047  0.44186047  0.44186047 1
    -0.45348837  0.45348837  0.45348837 1
    -0.46511628  0.46511628  0.46511628 1
    -0.47674419  0.47674419  0.47674419 1
    -0.48837209  0.48837209  0.48837209 1
    -0.50000000  0.50000000  0.50000000 1
    -0.48956522  0.51043478  0.50000000 1
    -0.47913043  0.52086957  0.50000000 1
    -0.46869565  0.53130435  0.50000000 1
    -0.45826087  0.54173913  0.50000000 1
    -0.44782609  0.55217391  0.50000000 1
    -0.43739130  0.56260870  0.50000000 1
    -0.42695652  0.57304348  0.50000000 1
    -0.41652174  0.58347826  0.50000000 1
    -0.40608696  0.59391304  0.50000000 1
    -0.39565217  0.60434783  0.50000000 1
    -0.38521739  0.61478261  0.50000000 1
    -0.37478261  0.62521739  0.50000000 1
    -0.36434783  0.63565217  0.50000000 1
    -0.35391304  0.64608696  0.50000000 1
    -0.34347826  0.65652174  0.50000000 1
    -0.33304348  0.66695652  0.50000000 1
    -0.32260870  0.67739130  0.50000000 1
    -0.31217391  0.68782609  0.50000000 1
    -0.30173913  0.69826087  0.50000000 1
    -0.29130435  0.70869565  0.50000000 1
    -0.28086957  0.71913043  0.50000000 1
    -0.27043478  0.72956522  0.50000000 1
    -0.26000000  0.74000000  0.50000000 1
    -0.25633803  0.73661972  0.50000000 1
    -0.25267606  0.73323944  0.50000000 1
    -0.24901408  0.72985915  0.50000000 1
    -0.24535211  0.72647887  0.50000000 1
    -0.24169014  0.72309859  0.50000000 1
    -0.23802817  0.71971831  0.50000000 1
    -0.23436620  0.71633803  0.50000000 1
    -0.23070423  0.71295775  0.50000000 1
    -0.22704225  0.70957746  0.50000000 1
    -0.22338028  0.70619718  0.50000000 1
    -0.21971831  0.70281690  0.50000000 1
    -0.21605634  0.69943662  0.50000000 1
    -0.21239437  0.69605634  0.50000000 1
    -0.20873239  0.69267606  0.50000000 1
    -0.20507042  0.68929577  0.50000000 1
    -0.20140845  0.68591549  0.50000000 1
    -0.19774648  0.68253521  0.50000000 1
    -0.19408451  0.67915493  0.50000000 1
    -0.19042254  0.67577465  0.50000000 1
    -0.18676056  0.67239437  0.50000000 1
    -0.18309859  0.66901408  0.50000000 1
    -0.17943662  0.66563380  0.50000000 1
    -0.17577465  0.66225352  0.50000000 1
    -0.17211268  0.65887324  0.50000000 1
    -0.16845070  0.65549296  0.50000000 1
    -0.16478873  0.65211268  0.50000000 1
    -0.16112676  0.64873239  0.50000000 1
    -0.15746479  0.64535211  0.50000000 1
    -0.15380282  0.64197183  0.50000000 1
    -0.15014085  0.63859155  0.50000000 1
    -0.14647887  0.63521127  0.50000000 1
    -0.14281690  0.63183099  0.50000000 1
    -0.13915493  0.62845070  0.50000000 1
    -0.13549296  0.62507042  0.50000000 1
    -0.13183099  0.62169014  0.50000000 1
    -0.12816901  0.61830986  0.50000000 1
    -0.12450704  0.61492958  0.50000000 1
    -0.12084507  0.61154930  0.50000000 1
    -0.11718310  0.60816901  0.50000000 1
    -0.11352113  0.60478873  0.50000000 1
    -0.10985915  0.60140845  0.50000000 1
    -0.10619718  0.59802817  0.50000000 1
    -0.10253521  0.59464789  0.50000000 1
    -0.09887324  0.59126761  0.50000000 1
    -0.09521127  0.58788732  0.50000000 1
    -0.09154930  0.58450704  0.50000000 1
    -0.08788732  0.58112676  0.50000000 1
    -0.08422535  0.57774648  0.50000000 1
    -0.08056338  0.57436620  0.50000000 1
    -0.07690141  0.57098592  0.50000000 1
    -0.07323944  0.56760563  0.50000000 1
    -0.06957746  0.56422535  0.50000000 1
    -0.06591549  0.56084507  0.50000000 1
    -0.06225352  0.55746479  0.50000000 1
    -0.05859155  0.55408451  0.50000000 1
    -0.05492958  0.55070423  0.50000000 1
    -0.05126761  0.54732394  0.50000000 1
    -0.04760563  0.54394366  0.50000000 1
    -0.04394366  0.54056338  0.50000000 1
    -0.04028169  0.53718310  0.50000000 1
    -0.03661972  0.53380282  0.50000000 1
    -0.03295775  0.53042254  0.50000000 1
    -0.02929577  0.52704225  0.50000000 1
    -0.02563380  0.52366197  0.50000000 1
    -0.02197183  0.52028169  0.50000000 1
    -0.01830986  0.51690141  0.50000000 1
    -0.01464789  0.51352113  0.50000000 1
    -0.01098592  0.51014085  0.50000000 1
    -0.00732394  0.50676056  0.50000000 1
    -0.00366197  0.50338028  0.50000000 1
    0.00000000  0.50000000  0.50000000 1
    0.00000000  0.49350649  0.49350649 1
    0.00000000  0.48701299  0.48701299 1
    0.00000000  0.48051948  0.48051948 1
    0.00000000  0.47402597  0.47402597 1
    0.00000000  0.46753247  0.46753247 1
    0.00000000  0.46103896  0.46103896 1
    0.00000000  0.45454545  0.45454545 1
    0.00000000  0.44805195  0.44805195 1
    0.00000000  0.44155844  0.44155844 1
    0.00000000  0.43506494  0.43506494 1
    0.00000000  0.42857143  0.42857143 1
    0.00000000  0.42207792  0.42207792 1
    0.00000000  0.41558442  0.41558442 1
    0.00000000  0.40909091  0.40909091 1
    0.00000000  0.40259740  0.40259740 1
    0.00000000  0.39610390  0.39610390 1
    0.00000000  0.38961039  0.38961039 1
    0.00000000  0.38311688  0.38311688 1
    0.00000000  0.37662338  0.37662338 1
    0.00000000  0.37012987  0.37012987 1
    0.00000000  0.36363636  0.36363636 1
    0.00000000  0.35714286  0.35714286 1
    0.00000000  0.35064935  0.35064935 1
    0.00000000  0.34415584  0.34415584 1
    0.00000000  0.33766234  0.33766234 1
    0.00000000  0.33116883  0.33116883 1
    0.00000000  0.32467532  0.32467532 1
    0.00000000  0.31818182  0.31818182 1
    0.00000000  0.31168831  0.31168831 1
    0.00000000  0.30519481  0.30519481 1
    0.00000000  0.29870130  0.29870130 1
    0.00000000  0.29220779  0.29220779 1
    0.00000000  0.28571429  0.28571429 1
    0.00000000  0.27922078  0.27922078 1
    0.00000000  0.27272727  0.27272727 1
    0.00000000  0.26623377  0.26623377 1
    0.00000000  0.25974026  0.25974026 1
    0.00000000  0.25324675  0.25324675 1
    0.00000000  0.24675325  0.24675325 1
    0.00000000  0.24025974  0.24025974 1
    0.00000000  0.23376623  0.23376623 1
    0.00000000  0.22727273  0.22727273 1
    0.00000000  0.22077922  0.22077922 1
    0.00000000  0.21428571  0.21428571 1
    0.00000000  0.20779221  0.20779221 1
    0.00000000  0.20129870  0.20129870 1
    0.00000000  0.19480519  0.19480519 1
    0.00000000  0.18831169  0.18831169 1
    0.00000000  0.18181818  0.18181818 1
    0.00000000  0.17532468  0.17532468 1
    0.00000000  0.16883117  0.16883117 1
    0.00000000  0.16233766  0.16233766 1
    0.00000000  0.15584416  0.15584416 1
    0.00000000  0.14935065  0.14935065 1
    0.00000000  0.14285714  0.14285714 1
    0.00000000  0.13636364  0.13636364 1
    0.00000000  0.12987013  0.12987013 1
    0.00000000  0.12337662  0.12337662 1
    0.00000000  0.11688312  0.11688312 1
    0.00000000  0.11038961  0.11038961 1
    0.00000000  0.10389610  0.10389610 1
    0.00000000  0.09740260  0.09740260 1
    0.00000000  0.09090909  0.09090909 1
    0.00000000  0.08441558  0.08441558 1
    0.00000000  0.07792208  0.07792208 1
    0.00000000  0.07142857  0.07142857 1
    0.00000000  0.06493506  0.06493506 1
    0.00000000  0.05844156  0.05844156 1
    0.00000000  0.05194805  0.05194805 1
    0.00000000  0.04545455  0.04545455 1
    0.00000000  0.03896104  0.03896104 1
    0.00000000  0.03246753  0.03246753 1
    0.00000000  0.02597403  0.02597403 1
    0.00000000  0.01948052  0.01948052 1
    0.00000000  0.01298701  0.01298701 1
    0.00000000  0.00649351  0.00649351 1
    0.00000000  0.00000000  0.00000000 1
    0.00000000  0.00000000  0.01515152 1
    0.00000000  0.00000000  0.03030303 1
    0.00000000  0.00000000  0.04545455 1
    0.00000000  0.00000000  0.06060606 1
    0.00000000  0.00000000  0.07575758 1
    0.00000000  0.00000000  0.09090909 1
    0.00000000  0.00000000  0.10606061 1
    0.00000000  0.00000000  0.12121212 1
    0.00000000  0.00000000  0.13636364 1
    0.00000000  0.00000000  0.15151515 1
    0.00000000  0.00000000  0.16666667 1
    0.00000000  0.00000000  0.18181818 1
    0.00000000  0.00000000  0.19696970 1
    0.00000000  0.00000000  0.21212121 1
    0.00000000  0.00000000  0.22727273 1
    0.00000000  0.00000000  0.24242424 1
    0.00000000  0.00000000  0.25757576 1
    0.00000000  0.00000000  0.27272727 1
    0.00000000  0.00000000  0.28787879 1
    0.00000000  0.00000000  0.30303030 1
    0.00000000  0.00000000  0.31818182 1
    0.00000000  0.00000000  0.33333333 1
    0.00000000  0.00000000  0.34848485 1
    0.00000000  0.00000000  0.36363636 1
    0.00000000  0.00000000  0.37878788 1
    0.00000000  0.00000000  0.39393939 1
    0.00000000  0.00000000  0.40909091 1
    0.00000000  0.00000000  0.42424242 1
    0.00000000  0.00000000  0.43939394 1
    0.00000000  0.00000000  0.45454545 1
    0.00000000  0.00000000  0.46969697 1
    0.00000000  0.00000000  0.48484848 1
    0.00000000  0.00000000  0.50000000 1
