&CONTROL
  calculation = 'vc-relax',
  etot_conv_thr = 2d-06,
  forc_conv_thr = 2d-05,
  outdir = './',
  prefix = 'nbti',
  pseudo_dir = '../../pseudo/',
  tprnfor = .TRUE.,
  tstress = .TRUE.,
  verbosity = 'low',
/
&SYSTEM
  degauss = 0.015,
  ecutrho = 340.0,
  ecutwfc = 85.0,
  ibrav = 0,
  nosym = .FALSE.,
  occupations = 'smearing',
  smearing = 'gauss',
  nat = 16,
  ntyp = 2,
/
&ELECTRONS
  conv_thr = 1d-10,
  diago_david_ndim = 8,
  electron_maxstep = 200,
  mixing_beta = 0.3,
  mixing_mode = 'local-TF',
/
&IONS
  ion_dynamics = 'bfgs',
  trust_radius_min = 1d-06,
/
&CELL
  cell_dynamics = 'bfgs',
  press = 900,
  press_conv_thr = 0.1,
/
ATOMIC_SPECIES
  Nb  92.9064 Nb.upf
  Ti  47.8670 Ti.upf
ATOMIC_POSITIONS crystal
  Ti 0.250000000000 0.750000000000 0.750000000000
  Ti 0.500000000000 0.500000000000 0.500000000000
  Ti 0.250000000000 0.750000000000 0.250000000000
  Ti 0.500000000000 0.500000000000 0.000000000000
  Ti 0.250000000000 0.250000000000 0.250000000000
  Ti 0.000000000000 0.500000000000 0.000000000000
  Ti 0.500000000000 0.000000000000 0.000000000000
  Ti 0.750000000000 0.750000000000 0.250000000000
  Nb 0.750000000000 0.250000000000 0.750000000000
  Nb 0.750000000000 0.250000000000 0.250000000000
  Nb 0.000000000000 0.000000000000 0.500000000000
  Nb 0.000000000000 0.000000000000 0.000000000000
  Nb 0.000000000000 0.500000000000 0.500000000000
  Nb 0.500000000000 0.000000000000 0.500000000000
  Nb 0.250000000000 0.250000000000 0.750000000000
  Nb 0.750000000000 0.750000000000 0.750000000000
K_POINTS automatic
  9 9 6 0 0 0
CELL_PARAMETERS angstrom
      5.3684470000      0.0000000000      0.0000000000
     -1.7794824614      5.0625473093      0.0000000000
      0.0000000000      0.0000000000      8.5655250000
