&CONTROL
  calculation = 'bands',
  prefix = 'nb',
  pseudo_dir = '../../pseudo/',
  verbosity = 'low',
/
&SYSTEM
  degauss = 0.015,
  ecutrho = 340,
  ecutwfc = 85.0,
  ibrav = 0,
  nbnd = 14,
  nosym = .FALSE.,
  occupations = 'smearing',
  smearing = 'gauss',
  nat = 1,
  ntyp = 1,
/
&ELECTRONS
  conv_thr = 1d-10,
  diagonalization = 'davidson',
  electron_maxstep = 40,
  mixing_beta = 0.7,
/
&IONS
/
&CELL
/
ATOMIC_SPECIES
  Nb  92.9064 Nb.upf
ATOMIC_POSITIONS crystal
  Nb 0.000000000000 0.000000000000 0.000000000000
CELL_PARAMETERS angstrom
      1.4952805820      1.4952805820      1.4952805820
      1.4952805820     -1.4952805820     -1.4952805820
     -1.4952805820      1.4952805820     -1.4952805820
K_POINTS crystal
876
    0.00000000  0.00000000  0.00000000 1
    0.00236967  -0.00236967  0.00236967 1
    0.00473934  -0.00473934  0.00473934 1
    0.00710900  -0.00710900  0.00710900 1
    0.00947867  -0.00947867  0.00947867 1
    0.01184834  -0.01184834  0.01184834 1
    0.01421801  -0.01421801  0.01421801 1
    0.01658768  -0.01658768  0.01658768 1
    0.01895735  -0.01895735  0.01895735 1
    0.02132701  -0.02132701  0.02132701 1
    0.02369668  -0.02369668  0.02369668 1
    0.02606635  -0.02606635  0.02606635 1
    0.02843602  -0.02843602  0.02843602 1
    0.03080569  -0.03080569  0.03080569 1
    0.03317536  -0.03317536  0.03317536 1
    0.03554502  -0.03554502  0.03554502 1
    0.03791469  -0.03791469  0.03791469 1
    0.04028436  -0.04028436  0.04028436 1
    0.04265403  -0.04265403  0.04265403 1
    0.04502370  -0.04502370  0.04502370 1
    0.04739336  -0.04739336  0.04739336 1
    0.04976303  -0.04976303  0.04976303 1
    0.05213270  -0.05213270  0.05213270 1
    0.05450237  -0.05450237  0.05450237 1
    0.05687204  -0.05687204  0.05687204 1
    0.05924171  -0.05924171  0.05924171 1
    0.06161137  -0.06161137  0.06161137 1
    0.06398104  -0.06398104  0.06398104 1
    0.06635071  -0.06635071  0.06635071 1
    0.06872038  -0.06872038  0.06872038 1
    0.07109005  -0.07109005  0.07109005 1
    0.07345972  -0.07345972  0.07345972 1
    0.07582938  -0.07582938  0.07582938 1
    0.07819905  -0.07819905  0.07819905 1
    0.08056872  -0.08056872  0.08056872 1
    0.08293839  -0.08293839  0.08293839 1
    0.08530806  -0.08530806  0.08530806 1
    0.08767773  -0.08767773  0.08767773 1
    0.09004739  -0.09004739  0.09004739 1
    0.09241706  -0.09241706  0.09241706 1
    0.09478673  -0.09478673  0.09478673 1
    0.09715640  -0.09715640  0.09715640 1
    0.09952607  -0.09952607  0.09952607 1
    0.10189573  -0.10189573  0.10189573 1
    0.10426540  -0.10426540  0.10426540 1
    0.10663507  -0.10663507  0.10663507 1
    0.10900474  -0.10900474  0.10900474 1
    0.11137441  -0.11137441  0.11137441 1
    0.11374408  -0.11374408  0.11374408 1
    0.11611374  -0.11611374  0.11611374 1
    0.11848341  -0.11848341  0.11848341 1
    0.12085308  -0.12085308  0.12085308 1
    0.12322275  -0.12322275  0.12322275 1
    0.12559242  -0.12559242  0.12559242 1
    0.12796209  -0.12796209  0.12796209 1
    0.13033175  -0.13033175  0.13033175 1
    0.13270142  -0.13270142  0.13270142 1
    0.13507109  -0.13507109  0.13507109 1
    0.13744076  -0.13744076  0.13744076 1
    0.13981043  -0.13981043  0.13981043 1
    0.14218009  -0.14218009  0.14218009 1
    0.14454976  -0.14454976  0.14454976 1
    0.14691943  -0.14691943  0.14691943 1
    0.14928910  -0.14928910  0.14928910 1
    0.15165877  -0.15165877  0.15165877 1
    0.15402844  -0.15402844  0.15402844 1
    0.15639810  -0.15639810  0.15639810 1
    0.15876777  -0.15876777  0.15876777 1
    0.16113744  -0.16113744  0.16113744 1
    0.16350711  -0.16350711  0.16350711 1
    0.16587678  -0.16587678  0.16587678 1
    0.16824645  -0.16824645  0.16824645 1
    0.17061611  -0.17061611  0.17061611 1
    0.17298578  -0.17298578  0.17298578 1
    0.17535545  -0.17535545  0.17535545 1
    0.17772512  -0.17772512  0.17772512 1
    0.18009479  -0.18009479  0.18009479 1
    0.18246445  -0.18246445  0.18246445 1
    0.18483412  -0.18483412  0.18483412 1
    0.18720379  -0.18720379  0.18720379 1
    0.18957346  -0.18957346  0.18957346 1
    0.19194313  -0.19194313  0.19194313 1
    0.19431280  -0.19431280  0.19431280 1
    0.19668246  -0.19668246  0.19668246 1
    0.19905213  -0.19905213  0.19905213 1
    0.20142180  -0.20142180  0.20142180 1
    0.20379147  -0.20379147  0.20379147 1
    0.20616114  -0.20616114  0.20616114 1
    0.20853081  -0.20853081  0.20853081 1
    0.21090047  -0.21090047  0.21090047 1
    0.21327014  -0.21327014  0.21327014 1
    0.21563981  -0.21563981  0.21563981 1
    0.21800948  -0.21800948  0.21800948 1
    0.22037915  -0.22037915  0.22037915 1
    0.22274882  -0.22274882  0.22274882 1
    0.22511848  -0.22511848  0.22511848 1
    0.22748815  -0.22748815  0.22748815 1
    0.22985782  -0.22985782  0.22985782 1
    0.23222749  -0.23222749  0.23222749 1
    0.23459716  -0.23459716  0.23459716 1
    0.23696682  -0.23696682  0.23696682 1
    0.23933649  -0.23933649  0.23933649 1
    0.24170616  -0.24170616  0.24170616 1
    0.24407583  -0.24407583  0.24407583 1
    0.24644550  -0.24644550  0.24644550 1
    0.24881517  -0.24881517  0.24881517 1
    0.25118483  -0.25118483  0.25118483 1
    0.25355450  -0.25355450  0.25355450 1
    0.25592417  -0.25592417  0.25592417 1
    0.25829384  -0.25829384  0.25829384 1
    0.26066351  -0.26066351  0.26066351 1
    0.26303318  -0.26303318  0.26303318 1
    0.26540284  -0.26540284  0.26540284 1
    0.26777251  -0.26777251  0.26777251 1
    0.27014218  -0.27014218  0.27014218 1
    0.27251185  -0.27251185  0.27251185 1
    0.27488152  -0.27488152  0.27488152 1
    0.27725118  -0.27725118  0.27725118 1
    0.27962085  -0.27962085  0.27962085 1
    0.28199052  -0.28199052  0.28199052 1
    0.28436019  -0.28436019  0.28436019 1
    0.28672986  -0.28672986  0.28672986 1
    0.28909953  -0.28909953  0.28909953 1
    0.29146919  -0.29146919  0.29146919 1
    0.29383886  -0.29383886  0.29383886 1
    0.29620853  -0.29620853  0.29620853 1
    0.29857820  -0.29857820  0.29857820 1
    0.30094787  -0.30094787  0.30094787 1
    0.30331754  -0.30331754  0.30331754 1
    0.30568720  -0.30568720  0.30568720 1
    0.30805687  -0.30805687  0.30805687 1
    0.31042654  -0.31042654  0.31042654 1
    0.31279621  -0.31279621  0.31279621 1
    0.31516588  -0.31516588  0.31516588 1
    0.31753555  -0.31753555  0.31753555 1
    0.31990521  -0.31990521  0.31990521 1
    0.32227488  -0.32227488  0.32227488 1
    0.32464455  -0.32464455  0.32464455 1
    0.32701422  -0.32701422  0.32701422 1
    0.32938389  -0.32938389  0.32938389 1
    0.33175355  -0.33175355  0.33175355 1
    0.33412322  -0.33412322  0.33412322 1
    0.33649289  -0.33649289  0.33649289 1
    0.33886256  -0.33886256  0.33886256 1
    0.34123223  -0.34123223  0.34123223 1
    0.34360190  -0.34360190  0.34360190 1
    0.34597156  -0.34597156  0.34597156 1
    0.34834123  -0.34834123  0.34834123 1
    0.35071090  -0.35071090  0.35071090 1
    0.35308057  -0.35308057  0.35308057 1
    0.35545024  -0.35545024  0.35545024 1
    0.35781991  -0.35781991  0.35781991 1
    0.36018957  -0.36018957  0.36018957 1
    0.36255924  -0.36255924  0.36255924 1
    0.36492891  -0.36492891  0.36492891 1
    0.36729858  -0.36729858  0.36729858 1
    0.36966825  -0.36966825  0.36966825 1
    0.37203791  -0.37203791  0.37203791 1
    0.37440758  -0.37440758  0.37440758 1
    0.37677725  -0.37677725  0.37677725 1
    0.37914692  -0.37914692  0.37914692 1
    0.38151659  -0.38151659  0.38151659 1
    0.38388626  -0.38388626  0.38388626 1
    0.38625592  -0.38625592  0.38625592 1
    0.38862559  -0.38862559  0.38862559 1
    0.39099526  -0.39099526  0.39099526 1
    0.39336493  -0.39336493  0.39336493 1
    0.39573460  -0.39573460  0.39573460 1
    0.39810427  -0.39810427  0.39810427 1
    0.40047393  -0.40047393  0.40047393 1
    0.40284360  -0.40284360  0.40284360 1
    0.40521327  -0.40521327  0.40521327 1
    0.40758294  -0.40758294  0.40758294 1
    0.40995261  -0.40995261  0.40995261 1
    0.41232227  -0.41232227  0.41232227 1
    0.41469194  -0.41469194  0.41469194 1
    0.41706161  -0.41706161  0.41706161 1
    0.41943128  -0.41943128  0.41943128 1
    0.42180095  -0.42180095  0.42180095 1
    0.42417062  -0.42417062  0.42417062 1
    0.42654028  -0.42654028  0.42654028 1
    0.42890995  -0.42890995  0.42890995 1
    0.43127962  -0.43127962  0.43127962 1
    0.43364929  -0.43364929  0.43364929 1
    0.43601896  -0.43601896  0.43601896 1
    0.43838863  -0.43838863  0.43838863 1
    0.44075829  -0.44075829  0.44075829 1
    0.44312796  -0.44312796  0.44312796 1
    0.44549763  -0.44549763  0.44549763 1
    0.44786730  -0.44786730  0.44786730 1
    0.45023697  -0.45023697  0.45023697 1
    0.45260664  -0.45260664  0.45260664 1
    0.45497630  -0.45497630  0.45497630 1
    0.45734597  -0.45734597  0.45734597 1
    0.45971564  -0.45971564  0.45971564 1
    0.46208531  -0.46208531  0.46208531 1
    0.46445498  -0.46445498  0.46445498 1
    0.46682464  -0.46682464  0.46682464 1
    0.46919431  -0.46919431  0.46919431 1
    0.47156398  -0.47156398  0.47156398 1
    0.47393365  -0.47393365  0.47393365 1
    0.47630332  -0.47630332  0.47630332 1
    0.47867299  -0.47867299  0.47867299 1
    0.48104265  -0.48104265  0.48104265 1
    0.48341232  -0.48341232  0.48341232 1
    0.48578199  -0.48578199  0.48578199 1
    0.48815166  -0.48815166  0.48815166 1
    0.49052133  -0.49052133  0.49052133 1
    0.49289100  -0.49289100  0.49289100 1
    0.49526066  -0.49526066  0.49526066 1
    0.49763033  -0.49763033  0.49763033 1
    0.50000000  -0.50000000  0.50000000 1
    0.49664430  -0.49664430  0.50000000 1
    0.49328859  -0.49328859  0.50000000 1
    0.48993289  -0.48993289  0.50000000 1
    0.48657718  -0.48657718  0.50000000 1
    0.48322148  -0.48322148  0.50000000 1
    0.47986577  -0.47986577  0.50000000 1
    0.47651007  -0.47651007  0.50000000 1
    0.47315436  -0.47315436  0.50000000 1
    0.46979866  -0.46979866  0.50000000 1
    0.46644295  -0.46644295  0.50000000 1
    0.46308725  -0.46308725  0.50000000 1
    0.45973154  -0.45973154  0.50000000 1
    0.45637584  -0.45637584  0.50000000 1
    0.45302013  -0.45302013  0.50000000 1
    0.44966443  -0.44966443  0.50000000 1
    0.44630872  -0.44630872  0.50000000 1
    0.44295302  -0.44295302  0.50000000 1
    0.43959732  -0.43959732  0.50000000 1
    0.43624161  -0.43624161  0.50000000 1
    0.43288591  -0.43288591  0.50000000 1
    0.42953020  -0.42953020  0.50000000 1
    0.42617450  -0.42617450  0.50000000 1
    0.42281879  -0.42281879  0.50000000 1
    0.41946309  -0.41946309  0.50000000 1
    0.41610738  -0.41610738  0.50000000 1
    0.41275168  -0.41275168  0.50000000 1
    0.40939597  -0.40939597  0.50000000 1
    0.40604027  -0.40604027  0.50000000 1
    0.40268456  -0.40268456  0.50000000 1
    0.39932886  -0.39932886  0.50000000 1
    0.39597315  -0.39597315  0.50000000 1
    0.39261745  -0.39261745  0.50000000 1
    0.38926174  -0.38926174  0.50000000 1
    0.38590604  -0.38590604  0.50000000 1
    0.38255034  -0.38255034  0.50000000 1
    0.37919463  -0.37919463  0.50000000 1
    0.37583893  -0.37583893  0.50000000 1
    0.37248322  -0.37248322  0.50000000 1
    0.36912752  -0.36912752  0.50000000 1
    0.36577181  -0.36577181  0.50000000 1
    0.36241611  -0.36241611  0.50000000 1
    0.35906040  -0.35906040  0.50000000 1
    0.35570470  -0.35570470  0.50000000 1
    0.35234899  -0.35234899  0.50000000 1
    0.34899329  -0.34899329  0.50000000 1
    0.34563758  -0.34563758  0.50000000 1
    0.34228188  -0.34228188  0.50000000 1
    0.33892617  -0.33892617  0.50000000 1
    0.33557047  -0.33557047  0.50000000 1
    0.33221477  -0.33221477  0.50000000 1
    0.32885906  -0.32885906  0.50000000 1
    0.32550336  -0.32550336  0.50000000 1
    0.32214765  -0.32214765  0.50000000 1
    0.31879195  -0.31879195  0.50000000 1
    0.31543624  -0.31543624  0.50000000 1
    0.31208054  -0.31208054  0.50000000 1
    0.30872483  -0.30872483  0.50000000 1
    0.30536913  -0.30536913  0.50000000 1
    0.30201342  -0.30201342  0.50000000 1
    0.29865772  -0.29865772  0.50000000 1
    0.29530201  -0.29530201  0.50000000 1
    0.29194631  -0.29194631  0.50000000 1
    0.28859060  -0.28859060  0.50000000 1
    0.28523490  -0.28523490  0.50000000 1
    0.28187919  -0.28187919  0.50000000 1
    0.27852349  -0.27852349  0.50000000 1
    0.27516779  -0.27516779  0.50000000 1
    0.27181208  -0.27181208  0.50000000 1
    0.26845638  -0.26845638  0.50000000 1
    0.26510067  -0.26510067  0.50000000 1
    0.26174497  -0.26174497  0.50000000 1
    0.25838926  -0.25838926  0.50000000 1
    0.25503356  -0.25503356  0.50000000 1
    0.25167785  -0.25167785  0.50000000 1
    0.24832215  -0.24832215  0.50000000 1
    0.24496644  -0.24496644  0.50000000 1
    0.24161074  -0.24161074  0.50000000 1
    0.23825503  -0.23825503  0.50000000 1
    0.23489933  -0.23489933  0.50000000 1
    0.23154362  -0.23154362  0.50000000 1
    0.22818792  -0.22818792  0.50000000 1
    0.22483221  -0.22483221  0.50000000 1
    0.22147651  -0.22147651  0.50000000 1
    0.21812081  -0.21812081  0.50000000 1
    0.21476510  -0.21476510  0.50000000 1
    0.21140940  -0.21140940  0.50000000 1
    0.20805369  -0.20805369  0.50000000 1
    0.20469799  -0.20469799  0.50000000 1
    0.20134228  -0.20134228  0.50000000 1
    0.19798658  -0.19798658  0.50000000 1
    0.19463087  -0.19463087  0.50000000 1
    0.19127517  -0.19127517  0.50000000 1
    0.18791946  -0.18791946  0.50000000 1
    0.18456376  -0.18456376  0.50000000 1
    0.18120805  -0.18120805  0.50000000 1
    0.17785235  -0.17785235  0.50000000 1
    0.17449664  -0.17449664  0.50000000 1
    0.17114094  -0.17114094  0.50000000 1
    0.16778523  -0.16778523  0.50000000 1
    0.16442953  -0.16442953  0.50000000 1
    0.16107383  -0.16107383  0.50000000 1
    0.15771812  -0.15771812  0.50000000 1
    0.15436242  -0.15436242  0.50000000 1
    0.15100671  -0.15100671  0.50000000 1
    0.14765101  -0.14765101  0.50000000 1
    0.14429530  -0.14429530  0.50000000 1
    0.14093960  -0.14093960  0.50000000 1
    0.13758389  -0.13758389  0.50000000 1
    0.13422819  -0.13422819  0.50000000 1
    0.13087248  -0.13087248  0.50000000 1
    0.12751678  -0.12751678  0.50000000 1
    0.12416107  -0.12416107  0.50000000 1
    0.12080537  -0.12080537  0.50000000 1
    0.11744966  -0.11744966  0.50000000 1
    0.11409396  -0.11409396  0.50000000 1
    0.11073826  -0.11073826  0.50000000 1
    0.10738255  -0.10738255  0.50000000 1
    0.10402685  -0.10402685  0.50000000 1
    0.10067114  -0.10067114  0.50000000 1
    0.09731544  -0.09731544  0.50000000 1
    0.09395973  -0.09395973  0.50000000 1
    0.09060403  -0.09060403  0.50000000 1
    0.08724832  -0.08724832  0.50000000 1
    0.08389262  -0.08389262  0.50000000 1
    0.08053691  -0.08053691  0.50000000 1
    0.07718121  -0.07718121  0.50000000 1
    0.07382550  -0.07382550  0.50000000 1
    0.07046980  -0.07046980  0.50000000 1
    0.06711409  -0.06711409  0.50000000 1
    0.06375839  -0.06375839  0.50000000 1
    0.06040268  -0.06040268  0.50000000 1
    0.05704698  -0.05704698  0.50000000 1
    0.05369128  -0.05369128  0.50000000 1
    0.05033557  -0.05033557  0.50000000 1
    0.04697987  -0.04697987  0.50000000 1
    0.04362416  -0.04362416  0.50000000 1
    0.04026846  -0.04026846  0.50000000 1
    0.03691275  -0.03691275  0.50000000 1
    0.03355705  -0.03355705  0.50000000 1
    0.03020134  -0.03020134  0.50000000 1
    0.02684564  -0.02684564  0.50000000 1
    0.02348993  -0.02348993  0.50000000 1
    0.02013423  -0.02013423  0.50000000 1
    0.01677852  -0.01677852  0.50000000 1
    0.01342282  -0.01342282  0.50000000 1
    0.01006711  -0.01006711  0.50000000 1
    0.00671141  -0.00671141  0.50000000 1
    0.00335570  -0.00335570  0.50000000 1
    0.00000000  0.00000000  0.50000000 1
    0.00000000  0.00000000  0.49664430 1
    0.00000000  0.00000000  0.49328859 1
    0.00000000  0.00000000  0.48993289 1
    0.00000000  0.00000000  0.48657718 1
    0.00000000  0.00000000  0.48322148 1
    0.00000000  0.00000000  0.47986577 1
    0.00000000  0.00000000  0.47651007 1
    0.00000000  0.00000000  0.47315436 1
    0.00000000  0.00000000  0.46979866 1
    0.00000000  0.00000000  0.46644295 1
    0.00000000  0.00000000  0.46308725 1
    0.00000000  0.00000000  0.45973154 1
    0.00000000  0.00000000  0.45637584 1
    0.00000000  0.00000000  0.45302013 1
    0.00000000  0.00000000  0.44966443 1
    0.00000000  0.00000000  0.44630872 1
    0.00000000  0.00000000  0.44295302 1
    0.00000000  0.00000000  0.43959732 1
    0.00000000  0.00000000  0.43624161 1
    0.00000000  0.00000000  0.43288591 1
    0.00000000  0.00000000  0.42953020 1
    0.00000000  0.00000000  0.42617450 1
    0.00000000  0.00000000  0.42281879 1
    0.00000000  0.00000000  0.41946309 1
    0.00000000  0.00000000  0.41610738 1
    0.00000000  0.00000000  0.41275168 1
    0.00000000  0.00000000  0.40939597 1
    0.00000000  0.00000000  0.40604027 1
    0.00000000  0.00000000  0.40268456 1
    0.00000000  0.00000000  0.39932886 1
    0.00000000  0.00000000  0.39597315 1
    0.00000000  0.00000000  0.39261745 1
    0.00000000  0.00000000  0.38926174 1
    0.00000000  0.00000000  0.38590604 1
    0.00000000  0.00000000  0.38255034 1
    0.00000000  0.00000000  0.37919463 1
    0.00000000  0.00000000  0.37583893 1
    0.00000000  0.00000000  0.37248322 1
    0.00000000  0.00000000  0.36912752 1
    0.00000000  0.00000000  0.36577181 1
    0.00000000  0.00000000  0.36241611 1
    0.00000000  0.00000000  0.35906040 1
    0.00000000  0.00000000  0.35570470 1
    0.00000000  0.00000000  0.35234899 1
    0.00000000  0.00000000  0.34899329 1
    0.00000000  0.00000000  0.34563758 1
    0.00000000  0.00000000  0.34228188 1
    0.00000000  0.00000000  0.33892617 1
    0.00000000  0.00000000  0.33557047 1
    0.00000000  0.00000000  0.33221477 1
    0.00000000  0.00000000  0.32885906 1
    0.00000000  0.00000000  0.32550336 1
    0.00000000  0.00000000  0.32214765 1
    0.00000000  0.00000000  0.31879195 1
    0.00000000  0.00000000  0.31543624 1
    0.00000000  0.00000000  0.31208054 1
    0.00000000  0.00000000  0.30872483 1
    0.00000000  0.00000000  0.30536913 1
    0.00000000  0.00000000  0.30201342 1
    0.00000000  0.00000000  0.29865772 1
    0.00000000  0.00000000  0.29530201 1
    0.00000000  0.00000000  0.29194631 1
    0.00000000  0.00000000  0.28859060 1
    0.00000000  0.00000000  0.28523490 1
    0.00000000  0.00000000  0.28187919 1
    0.00000000  0.00000000  0.27852349 1
    0.00000000  0.00000000  0.27516779 1
    0.00000000  0.00000000  0.27181208 1
    0.00000000  0.00000000  0.26845638 1
    0.00000000  0.00000000  0.26510067 1
    0.00000000  0.00000000  0.26174497 1
    0.00000000  0.00000000  0.25838926 1
    0.00000000  0.00000000  0.25503356 1
    0.00000000  0.00000000  0.25167785 1
    0.00000000  0.00000000  0.24832215 1
    0.00000000  0.00000000  0.24496644 1
    0.00000000  0.00000000  0.24161074 1
    0.00000000  0.00000000  0.23825503 1
    0.00000000  0.00000000  0.23489933 1
    0.00000000  0.00000000  0.23154362 1
    0.00000000  0.00000000  0.22818792 1
    0.00000000  0.00000000  0.22483221 1
    0.00000000  0.00000000  0.22147651 1
    0.00000000  0.00000000  0.21812081 1
    0.00000000  0.00000000  0.21476510 1
    0.00000000  0.00000000  0.21140940 1
    0.00000000  0.00000000  0.20805369 1
    0.00000000  0.00000000  0.20469799 1
    0.00000000  0.00000000  0.20134228 1
    0.00000000  0.00000000  0.19798658 1
    0.00000000  0.00000000  0.19463087 1
    0.00000000  0.00000000  0.19127517 1
    0.00000000  0.00000000  0.18791946 1
    0.00000000  0.00000000  0.18456376 1
    0.00000000  0.00000000  0.18120805 1
    0.00000000  0.00000000  0.17785235 1
    0.00000000  0.00000000  0.17449664 1
    0.00000000  0.00000000  0.17114094 1
    0.00000000  0.00000000  0.16778523 1
    0.00000000  0.00000000  0.16442953 1
    0.00000000  0.00000000  0.16107383 1
    0.00000000  0.00000000  0.15771812 1
    0.00000000  0.00000000  0.15436242 1
    0.00000000  0.00000000  0.15100671 1
    0.00000000  0.00000000  0.14765101 1
    0.00000000  0.00000000  0.14429530 1
    0.00000000  0.00000000  0.14093960 1
    0.00000000  0.00000000  0.13758389 1
    0.00000000  0.00000000  0.13422819 1
    0.00000000  0.00000000  0.13087248 1
    0.00000000  0.00000000  0.12751678 1
    0.00000000  0.00000000  0.12416107 1
    0.00000000  0.00000000  0.12080537 1
    0.00000000  0.00000000  0.11744966 1
    0.00000000  0.00000000  0.11409396 1
    0.00000000  0.00000000  0.11073826 1
    0.00000000  0.00000000  0.10738255 1
    0.00000000  0.00000000  0.10402685 1
    0.00000000  0.00000000  0.10067114 1
    0.00000000  0.00000000  0.09731544 1
    0.00000000  0.00000000  0.09395973 1
    0.00000000  0.00000000  0.09060403 1
    0.00000000  0.00000000  0.08724832 1
    0.00000000  0.00000000  0.08389262 1
    0.00000000  0.00000000  0.08053691 1
    0.00000000  0.00000000  0.07718121 1
    0.00000000  0.00000000  0.07382550 1
    0.00000000  0.00000000  0.07046980 1
    0.00000000  0.00000000  0.06711409 1
    0.00000000  0.00000000  0.06375839 1
    0.00000000  0.00000000  0.06040268 1
    0.00000000  0.00000000  0.05704698 1
    0.00000000  0.00000000  0.05369128 1
    0.00000000  0.00000000  0.05033557 1
    0.00000000  0.00000000  0.04697987 1
    0.00000000  0.00000000  0.04362416 1
    0.00000000  0.00000000  0.04026846 1
    0.00000000  0.00000000  0.03691275 1
    0.00000000  0.00000000  0.03355705 1
    0.00000000  0.00000000  0.03020134 1
    0.00000000  0.00000000  0.02684564 1
    0.00000000  0.00000000  0.02348993 1
    0.00000000  0.00000000  0.02013423 1
    0.00000000  0.00000000  0.01677852 1
    0.00000000  0.00000000  0.01342282 1
    0.00000000  0.00000000  0.01006711 1
    0.00000000  0.00000000  0.00671141 1
    0.00000000  0.00000000  0.00335570 1
    0.00000000  0.00000000  0.00000000 1
    0.00136612  0.00136612  0.00136612 1
    0.00273224  0.00273224  0.00273224 1
    0.00409836  0.00409836  0.00409836 1
    0.00546448  0.00546448  0.00546448 1
    0.00683060  0.00683060  0.00683060 1
    0.00819672  0.00819672  0.00819672 1
    0.00956284  0.00956284  0.00956284 1
    0.01092896  0.01092896  0.01092896 1
    0.01229508  0.01229508  0.01229508 1
    0.01366120  0.01366120  0.01366120 1
    0.01502732  0.01502732  0.01502732 1
    0.01639344  0.01639344  0.01639344 1
    0.01775956  0.01775956  0.01775956 1
    0.01912568  0.01912568  0.01912568 1
    0.02049180  0.02049180  0.02049180 1
    0.02185792  0.02185792  0.02185792 1
    0.02322404  0.02322404  0.02322404 1
    0.02459016  0.02459016  0.02459016 1
    0.02595628  0.02595628  0.02595628 1
    0.02732240  0.02732240  0.02732240 1
    0.02868852  0.02868852  0.02868852 1
    0.03005464  0.03005464  0.03005464 1
    0.03142077  0.03142077  0.03142077 1
    0.03278689  0.03278689  0.03278689 1
    0.03415301  0.03415301  0.03415301 1
    0.03551913  0.03551913  0.03551913 1
    0.03688525  0.03688525  0.03688525 1
    0.03825137  0.03825137  0.03825137 1
    0.03961749  0.03961749  0.03961749 1
    0.04098361  0.04098361  0.04098361 1
    0.04234973  0.04234973  0.04234973 1
    0.04371585  0.04371585  0.04371585 1
    0.04508197  0.04508197  0.04508197 1
    0.04644809  0.04644809  0.04644809 1
    0.04781421  0.04781421  0.04781421 1
    0.04918033  0.04918033  0.04918033 1
    0.05054645  0.05054645  0.05054645 1
    0.05191257  0.05191257  0.05191257 1
    0.05327869  0.05327869  0.05327869 1
    0.05464481  0.05464481  0.05464481 1
    0.05601093  0.05601093  0.05601093 1
    0.05737705  0.05737705  0.05737705 1
    0.05874317  0.05874317  0.05874317 1
    0.06010929  0.06010929  0.06010929 1
    0.06147541  0.06147541  0.06147541 1
    0.06284153  0.06284153  0.06284153 1
    0.06420765  0.06420765  0.06420765 1
    0.06557377  0.06557377  0.06557377 1
    0.06693989  0.06693989  0.06693989 1
    0.06830601  0.06830601  0.06830601 1
    0.06967213  0.06967213  0.06967213 1
    0.07103825  0.07103825  0.07103825 1
    0.07240437  0.07240437  0.07240437 1
    0.07377049  0.07377049  0.07377049 1
    0.07513661  0.07513661  0.07513661 1
    0.07650273  0.07650273  0.07650273 1
    0.07786885  0.07786885  0.07786885 1
    0.07923497  0.07923497  0.07923497 1
    0.08060109  0.08060109  0.08060109 1
    0.08196721  0.08196721  0.08196721 1
    0.08333333  0.08333333  0.08333333 1
    0.08469945  0.08469945  0.08469945 1
    0.08606557  0.08606557  0.08606557 1
    0.08743169  0.08743169  0.08743169 1
    0.08879781  0.08879781  0.08879781 1
    0.09016393  0.09016393  0.09016393 1
    0.09153005  0.09153005  0.09153005 1
    0.09289617  0.09289617  0.09289617 1
    0.09426230  0.09426230  0.09426230 1
    0.09562842  0.09562842  0.09562842 1
    0.09699454  0.09699454  0.09699454 1
    0.09836066  0.09836066  0.09836066 1
    0.09972678  0.09972678  0.09972678 1
    0.10109290  0.10109290  0.10109290 1
    0.10245902  0.10245902  0.10245902 1
    0.10382514  0.10382514  0.10382514 1
    0.10519126  0.10519126  0.10519126 1
    0.10655738  0.10655738  0.10655738 1
    0.10792350  0.10792350  0.10792350 1
    0.10928962  0.10928962  0.10928962 1
    0.11065574  0.11065574  0.11065574 1
    0.11202186  0.11202186  0.11202186 1
    0.11338798  0.11338798  0.11338798 1
    0.11475410  0.11475410  0.11475410 1
    0.11612022  0.11612022  0.11612022 1
    0.11748634  0.11748634  0.11748634 1
    0.11885246  0.11885246  0.11885246 1
    0.12021858  0.12021858  0.12021858 1
    0.12158470  0.12158470  0.12158470 1
    0.12295082  0.12295082  0.12295082 1
    0.12431694  0.12431694  0.12431694 1
    0.12568306  0.12568306  0.12568306 1
    0.12704918  0.12704918  0.12704918 1
    0.12841530  0.12841530  0.12841530 1
    0.12978142  0.12978142  0.12978142 1
    0.13114754  0.13114754  0.13114754 1
    0.13251366  0.13251366  0.13251366 1
    0.13387978  0.13387978  0.13387978 1
    0.13524590  0.13524590  0.13524590 1
    0.13661202  0.13661202  0.13661202 1
    0.13797814  0.13797814  0.13797814 1
    0.13934426  0.13934426  0.13934426 1
    0.14071038  0.14071038  0.14071038 1
    0.14207650  0.14207650  0.14207650 1
    0.14344262  0.14344262  0.14344262 1
    0.14480874  0.14480874  0.14480874 1
    0.14617486  0.14617486  0.14617486 1
    0.14754098  0.14754098  0.14754098 1
    0.14890710  0.14890710  0.14890710 1
    0.15027322  0.15027322  0.15027322 1
    0.15163934  0.15163934  0.15163934 1
    0.15300546  0.15300546  0.15300546 1
    0.15437158  0.15437158  0.15437158 1
    0.15573770  0.15573770  0.15573770 1
    0.15710383  0.15710383  0.15710383 1
    0.15846995  0.15846995  0.15846995 1
    0.15983607  0.15983607  0.15983607 1
    0.16120219  0.16120219  0.16120219 1
    0.16256831  0.16256831  0.16256831 1
    0.16393443  0.16393443  0.16393443 1
    0.16530055  0.16530055  0.16530055 1
    0.16666667  0.16666667  0.16666667 1
    0.16803279  0.16803279  0.16803279 1
    0.16939891  0.16939891  0.16939891 1
    0.17076503  0.17076503  0.17076503 1
    0.17213115  0.17213115  0.17213115 1
    0.17349727  0.17349727  0.17349727 1
    0.17486339  0.17486339  0.17486339 1
    0.17622951  0.17622951  0.17622951 1
    0.17759563  0.17759563  0.17759563 1
    0.17896175  0.17896175  0.17896175 1
    0.18032787  0.18032787  0.18032787 1
    0.18169399  0.18169399  0.18169399 1
    0.18306011  0.18306011  0.18306011 1
    0.18442623  0.18442623  0.18442623 1
    0.18579235  0.18579235  0.18579235 1
    0.18715847  0.18715847  0.18715847 1
    0.18852459  0.18852459  0.18852459 1
    0.18989071  0.18989071  0.18989071 1
    0.19125683  0.19125683  0.19125683 1
    0.19262295  0.19262295  0.19262295 1
    0.19398907  0.19398907  0.19398907 1
    0.19535519  0.19535519  0.19535519 1
    0.19672131  0.19672131  0.19672131 1
    0.19808743  0.19808743  0.19808743 1
    0.19945355  0.19945355  0.19945355 1
    0.20081967  0.20081967  0.20081967 1
    0.20218579  0.20218579  0.20218579 1
    0.20355191  0.20355191  0.20355191 1
    0.20491803  0.20491803  0.20491803 1
    0.20628415  0.20628415  0.20628415 1
    0.20765027  0.20765027  0.20765027 1
    0.20901639  0.20901639  0.20901639 1
    0.21038251  0.21038251  0.21038251 1
    0.21174863  0.21174863  0.21174863 1
    0.21311475  0.21311475  0.21311475 1
    0.21448087  0.21448087  0.21448087 1
    0.21584699  0.21584699  0.21584699 1
    0.21721311  0.21721311  0.21721311 1
    0.21857923  0.21857923  0.21857923 1
    0.21994536  0.21994536  0.21994536 1
    0.22131148  0.22131148  0.22131148 1
    0.22267760  0.22267760  0.22267760 1
    0.22404372  0.22404372  0.22404372 1
    0.22540984  0.22540984  0.22540984 1
    0.22677596  0.22677596  0.22677596 1
    0.22814208  0.22814208  0.22814208 1
    0.22950820  0.22950820  0.22950820 1
    0.23087432  0.23087432  0.23087432 1
    0.23224044  0.23224044  0.23224044 1
    0.23360656  0.23360656  0.23360656 1
    0.23497268  0.23497268  0.23497268 1
    0.23633880  0.23633880  0.23633880 1
    0.23770492  0.23770492  0.23770492 1
    0.23907104  0.23907104  0.23907104 1
    0.24043716  0.24043716  0.24043716 1
    0.24180328  0.24180328  0.24180328 1
    0.24316940  0.24316940  0.24316940 1
    0.24453552  0.24453552  0.24453552 1
    0.24590164  0.24590164  0.24590164 1
    0.24726776  0.24726776  0.24726776 1
    0.24863388  0.24863388  0.24863388 1
    0.25000000  0.25000000  0.25000000 1
    0.25136612  0.24590164  0.25136612 1
    0.25273224  0.24180328  0.25273224 1
    0.25409836  0.23770492  0.25409836 1
    0.25546448  0.23360656  0.25546448 1
    0.25683060  0.22950820  0.25683060 1
    0.25819672  0.22540984  0.25819672 1
    0.25956284  0.22131148  0.25956284 1
    0.26092896  0.21721311  0.26092896 1
    0.26229508  0.21311475  0.26229508 1
    0.26366120  0.20901639  0.26366120 1
    0.26502732  0.20491803  0.26502732 1