&CONTROL
  calculation = 'scf',
  prefix = 'nbti',
  pseudo_dir = '../../pseudo/',
  tprnfor = .TRUE.,
  tstress = .TRUE.,
  verbosity = 'low',
/
&SYSTEM
  degauss = 0.015,
  ecutrho = 340.0,
  ecutwfc = 85.0,
  ibrav = 0,
  nbnd = 200,
  nosym = .FALSE.,
  occupations = 'smearing',
  smearing = 'gauss',
  nat = 16,
  ntyp = 2,
/
&ELECTRONS
  conv_thr = 1d-10,
  electron_maxstep = 80,
  mixing_beta = 0.7,
  mixing_mode = 'local-TF',
/
&IONS
/
&CELL
/
ATOMIC_SPECIES
  Nb  92.9064 Nb.upf
  Ti  47.8670 Ti.upf
ATOMIC_POSITIONS crystal
  Ti 0.255264196600 0.744735736500 0.752159579600
  Ti 0.494735803400 0.505264263500 0.497840420400
  Ti 0.260861226200 0.739140344200 0.246223589800
  Ti 0.489138773800 0.510859655800 0.003776410200
  Ti 0.241431070400 0.243365835400 0.247059409700
  Ti -0.006634703700 0.491432181300 0.002941365700
  Ti 0.508568929600 0.006634164600 0.002940590300
  Ti 0.756634703700 0.758567818700 0.247058634300
  Nb 0.745889882900 0.254110049000 0.752982332600
  Nb 0.739711377000 0.260287265700 0.243904336500
  Nb 0.004110117100 -0.004110049000 0.497017667400
  Nb 0.010288623000 -0.010287265700 0.006095663500
  Nb -0.000814752000 0.499790652700 0.494750357400
  Nb 0.500209925500 0.000814553500 0.494750490700
  Nb 0.249790074500 0.249185446500 0.755249509300
  Nb 0.750814752000 0.750209347300 0.755249642600
CELL_PARAMETERS angstrom
      5.1742602090      0.0287385690     -0.0096198140
     -1.6882403560      4.8911698270      0.0096054860
     -0.0151952600      0.0107702590      8.4464718520
K_POINTS crystal
486
  0.00000000  0.00000000  0.00000000  2.0576e-03
  0.00000000  0.00000000  0.16666667  2.0576e-03
  0.00000000  0.00000000  0.33333333  2.0576e-03
  0.00000000  0.00000000  0.50000000  2.0576e-03
  0.00000000  0.00000000  0.66666667  2.0576e-03
  0.00000000  0.00000000  0.83333333  2.0576e-03
  0.00000000  0.11111111  0.00000000  2.0576e-03
  0.00000000  0.11111111  0.16666667  2.0576e-03
  0.00000000  0.11111111  0.33333333  2.0576e-03
  0.00000000  0.11111111  0.50000000  2.0576e-03
  0.00000000  0.11111111  0.66666667  2.0576e-03
  0.00000000  0.11111111  0.83333333  2.0576e-03
  0.00000000  0.22222222  0.00000000  2.0576e-03
  0.00000000  0.22222222  0.16666667  2.0576e-03
  0.00000000  0.22222222  0.33333333  2.0576e-03
  0.00000000  0.22222222  0.50000000  2.0576e-03
  0.00000000  0.22222222  0.66666667  2.0576e-03
  0.00000000  0.22222222  0.83333333  2.0576e-03
  0.00000000  0.33333333  0.00000000  2.0576e-03
  0.00000000  0.33333333  0.16666667  2.0576e-03
  0.00000000  0.33333333  0.33333333  2.0576e-03
  0.00000000  0.33333333  0.50000000  2.0576e-03
  0.00000000  0.33333333  0.66666667  2.0576e-03
  0.00000000  0.33333333  0.83333333  2.0576e-03
  0.00000000  0.44444444  0.00000000  2.0576e-03
  0.00000000  0.44444444  0.16666667  2.0576e-03
  0.00000000  0.44444444  0.33333333  2.0576e-03
  0.00000000  0.44444444  0.50000000  2.0576e-03
  0.00000000  0.44444444  0.66666667  2.0576e-03
  0.00000000  0.44444444  0.83333333  2.0576e-03
  0.00000000  0.55555556  0.00000000  2.0576e-03
  0.00000000  0.55555556  0.16666667  2.0576e-03
  0.00000000  0.55555556  0.33333333  2.0576e-03
  0.00000000  0.55555556  0.50000000  2.0576e-03
  0.00000000  0.55555556  0.66666667  2.0576e-03
  0.00000000  0.55555556  0.83333333  2.0576e-03
  0.00000000  0.66666667  0.00000000  2.0576e-03
  0.00000000  0.66666667  0.16666667  2.0576e-03
  0.00000000  0.66666667  0.33333333  2.0576e-03
  0.00000000  0.66666667  0.50000000  2.0576e-03
  0.00000000  0.66666667  0.66666667  2.0576e-03
  0.00000000  0.66666667  0.83333333  2.0576e-03
  0.00000000  0.77777778  0.00000000  2.0576e-03
  0.00000000  0.77777778  0.16666667  2.0576e-03
  0.00000000  0.77777778  0.33333333  2.0576e-03
  0.00000000  0.77777778  0.50000000  2.0576e-03
  0.00000000  0.77777778  0.66666667  2.0576e-03
  0.00000000  0.77777778  0.83333333  2.0576e-03
  0.00000000  0.88888889  0.00000000  2.0576e-03
  0.00000000  0.88888889  0.16666667  2.0576e-03
  0.00000000  0.88888889  0.33333333  2.0576e-03
  0.00000000  0.88888889  0.50000000  2.0576e-03
  0.00000000  0.88888889  0.66666667  2.0576e-03
  0.00000000  0.88888889  0.83333333  2.0576e-03
  0.11111111  0.00000000  0.00000000  2.0576e-03
  0.11111111  0.00000000  0.16666667  2.0576e-03
  0.11111111  0.00000000  0.33333333  2.0576e-03
  0.11111111  0.00000000  0.50000000  2.0576e-03
  0.11111111  0.00000000  0.66666667  2.0576e-03
  0.11111111  0.00000000  0.83333333  2.0576e-03
  0.11111111  0.11111111  0.00000000  2.0576e-03
  0.11111111  0.11111111  0.16666667  2.0576e-03
  0.11111111  0.11111111  0.33333333  2.0576e-03
  0.11111111  0.11111111  0.50000000  2.0576e-03
  0.11111111  0.11111111  0.66666667  2.0576e-03
  0.11111111  0.11111111  0.83333333  2.0576e-03
  0.11111111  0.22222222  0.00000000  2.0576e-03
  0.11111111  0.22222222  0.16666667  2.0576e-03
  0.11111111  0.22222222  0.33333333  2.0576e-03
  0.11111111  0.22222222  0.50000000  2.0576e-03
  0.11111111  0.22222222  0.66666667  2.0576e-03
  0.11111111  0.22222222  0.83333333  2.0576e-03
  0.11111111  0.33333333  0.00000000  2.0576e-03
  0.11111111  0.33333333  0.16666667  2.0576e-03
  0.11111111  0.33333333  0.33333333  2.0576e-03
  0.11111111  0.33333333  0.50000000  2.0576e-03
  0.11111111  0.33333333  0.66666667  2.0576e-03
  0.11111111  0.33333333  0.83333333  2.0576e-03
  0.11111111  0.44444444  0.00000000  2.0576e-03
  0.11111111  0.44444444  0.16666667  2.0576e-03
  0.11111111  0.44444444  0.33333333  2.0576e-03
  0.11111111  0.44444444  0.50000000  2.0576e-03
  0.11111111  0.44444444  0.66666667  2.0576e-03
  0.11111111  0.44444444  0.83333333  2.0576e-03
  0.11111111  0.55555556  0.00000000  2.0576e-03
  0.11111111  0.55555556  0.16666667  2.0576e-03
  0.11111111  0.55555556  0.33333333  2.0576e-03
  0.11111111  0.55555556  0.50000000  2.0576e-03
  0.11111111  0.55555556  0.66666667  2.0576e-03
  0.11111111  0.55555556  0.83333333  2.0576e-03
  0.11111111  0.66666667  0.00000000  2.0576e-03
  0.11111111  0.66666667  0.16666667  2.0576e-03
  0.11111111  0.66666667  0.33333333  2.0576e-03
  0.11111111  0.66666667  0.50000000  2.0576e-03
  0.11111111  0.66666667  0.66666667  2.0576e-03
  0.11111111  0.66666667  0.83333333  2.0576e-03
  0.11111111  0.77777778  0.00000000  2.0576e-03
  0.11111111  0.77777778  0.16666667  2.0576e-03
  0.11111111  0.77777778  0.33333333  2.0576e-03
  0.11111111  0.77777778  0.50000000  2.0576e-03
  0.11111111  0.77777778  0.66666667  2.0576e-03
  0.11111111  0.77777778  0.83333333  2.0576e-03
  0.11111111  0.88888889  0.00000000  2.0576e-03
  0.11111111  0.88888889  0.16666667  2.0576e-03
  0.11111111  0.88888889  0.33333333  2.0576e-03
  0.11111111  0.88888889  0.50000000  2.0576e-03
  0.11111111  0.88888889  0.66666667  2.0576e-03
  0.11111111  0.88888889  0.83333333  2.0576e-03
  0.22222222  0.00000000  0.00000000  2.0576e-03
  0.22222222  0.00000000  0.16666667  2.0576e-03
  0.22222222  0.00000000  0.33333333  2.0576e-03
  0.22222222  0.00000000  0.50000000  2.0576e-03
  0.22222222  0.00000000  0.66666667  2.0576e-03
  0.22222222  0.00000000  0.83333333  2.0576e-03
  0.22222222  0.11111111  0.00000000  2.0576e-03
  0.22222222  0.11111111  0.16666667  2.0576e-03
  0.22222222  0.11111111  0.33333333  2.0576e-03
  0.22222222  0.11111111  0.50000000  2.0576e-03
  0.22222222  0.11111111  0.66666667  2.0576e-03
  0.22222222  0.11111111  0.83333333  2.0576e-03
  0.22222222  0.22222222  0.00000000  2.0576e-03
  0.22222222  0.22222222  0.16666667  2.0576e-03
  0.22222222  0.22222222  0.33333333  2.0576e-03
  0.22222222  0.22222222  0.50000000  2.0576e-03
  0.22222222  0.22222222  0.66666667  2.0576e-03
  0.22222222  0.22222222  0.83333333  2.0576e-03
  0.22222222  0.33333333  0.00000000  2.0576e-03
  0.22222222  0.33333333  0.16666667  2.0576e-03
  0.22222222  0.33333333  0.33333333  2.0576e-03
  0.22222222  0.33333333  0.50000000  2.0576e-03
  0.22222222  0.33333333  0.66666667  2.0576e-03
  0.22222222  0.33333333  0.83333333  2.0576e-03
  0.22222222  0.44444444  0.00000000  2.0576e-03
  0.22222222  0.44444444  0.16666667  2.0576e-03
  0.22222222  0.44444444  0.33333333  2.0576e-03
  0.22222222  0.44444444  0.50000000  2.0576e-03
  0.22222222  0.44444444  0.66666667  2.0576e-03
  0.22222222  0.44444444  0.83333333  2.0576e-03
  0.22222222  0.55555556  0.00000000  2.0576e-03
  0.22222222  0.55555556  0.16666667  2.0576e-03
  0.22222222  0.55555556  0.33333333  2.0576e-03
  0.22222222  0.55555556  0.50000000  2.0576e-03
  0.22222222  0.55555556  0.66666667  2.0576e-03
  0.22222222  0.55555556  0.83333333  2.0576e-03
  0.22222222  0.66666667  0.00000000  2.0576e-03
  0.22222222  0.66666667  0.16666667  2.0576e-03
  0.22222222  0.66666667  0.33333333  2.0576e-03
  0.22222222  0.66666667  0.50000000  2.0576e-03
  0.22222222  0.66666667  0.66666667  2.0576e-03
  0.22222222  0.66666667  0.83333333  2.0576e-03
  0.22222222  0.77777778  0.00000000  2.0576e-03
  0.22222222  0.77777778  0.16666667  2.0576e-03
  0.22222222  0.77777778  0.33333333  2.0576e-03
  0.22222222  0.77777778  0.50000000  2.0576e-03
  0.22222222  0.77777778  0.66666667  2.0576e-03
  0.22222222  0.77777778  0.83333333  2.0576e-03
  0.22222222  0.88888889  0.00000000  2.0576e-03
  0.22222222  0.88888889  0.16666667  2.0576e-03
  0.22222222  0.88888889  0.33333333  2.0576e-03
  0.22222222  0.88888889  0.50000000  2.0576e-03
  0.22222222  0.88888889  0.66666667  2.0576e-03
  0.22222222  0.88888889  0.83333333  2.0576e-03
  0.33333333  0.00000000  0.00000000  2.0576e-03
  0.33333333  0.00000000  0.16666667  2.0576e-03
  0.33333333  0.00000000  0.33333333  2.0576e-03
  0.33333333  0.00000000  0.50000000  2.0576e-03
  0.33333333  0.00000000  0.66666667  2.0576e-03
  0.33333333  0.00000000  0.83333333  2.0576e-03
  0.33333333  0.11111111  0.00000000  2.0576e-03
  0.33333333  0.11111111  0.16666667  2.0576e-03
  0.33333333  0.11111111  0.33333333  2.0576e-03
  0.33333333  0.11111111  0.50000000  2.0576e-03
  0.33333333  0.11111111  0.66666667  2.0576e-03
  0.33333333  0.11111111  0.83333333  2.0576e-03
  0.33333333  0.22222222  0.00000000  2.0576e-03
  0.33333333  0.22222222  0.16666667  2.0576e-03
  0.33333333  0.22222222  0.33333333  2.0576e-03
  0.33333333  0.22222222  0.50000000  2.0576e-03
  0.33333333  0.22222222  0.66666667  2.0576e-03
  0.33333333  0.22222222  0.83333333  2.0576e-03
  0.33333333  0.33333333  0.00000000  2.0576e-03
  0.33333333  0.33333333  0.16666667  2.0576e-03
  0.33333333  0.33333333  0.33333333  2.0576e-03
  0.33333333  0.33333333  0.50000000  2.0576e-03
  0.33333333  0.33333333  0.66666667  2.0576e-03
  0.33333333  0.33333333  0.83333333  2.0576e-03
  0.33333333  0.44444444  0.00000000  2.0576e-03
  0.33333333  0.44444444  0.16666667  2.0576e-03
  0.33333333  0.44444444  0.33333333  2.0576e-03
  0.33333333  0.44444444  0.50000000  2.0576e-03
  0.33333333  0.44444444  0.66666667  2.0576e-03
  0.33333333  0.44444444  0.83333333  2.0576e-03
  0.33333333  0.55555556  0.00000000  2.0576e-03
  0.33333333  0.55555556  0.16666667  2.0576e-03
  0.33333333  0.55555556  0.33333333  2.0576e-03
  0.33333333  0.55555556  0.50000000  2.0576e-03
  0.33333333  0.55555556  0.66666667  2.0576e-03
  0.33333333  0.55555556  0.83333333  2.0576e-03
  0.33333333  0.66666667  0.00000000  2.0576e-03
  0.33333333  0.66666667  0.16666667  2.0576e-03
  0.33333333  0.66666667  0.33333333  2.0576e-03
  0.33333333  0.66666667  0.50000000  2.0576e-03
  0.33333333  0.66666667  0.66666667  2.0576e-03
  0.33333333  0.66666667  0.83333333  2.0576e-03
  0.33333333  0.77777778  0.00000000  2.0576e-03
  0.33333333  0.77777778  0.16666667  2.0576e-03
  0.33333333  0.77777778  0.33333333  2.0576e-03
  0.33333333  0.77777778  0.50000000  2.0576e-03
  0.33333333  0.77777778  0.66666667  2.0576e-03
  0.33333333  0.77777778  0.83333333  2.0576e-03
  0.33333333  0.88888889  0.00000000  2.0576e-03
  0.33333333  0.88888889  0.16666667  2.0576e-03
  0.33333333  0.88888889  0.33333333  2.0576e-03
  0.33333333  0.88888889  0.50000000  2.0576e-03
  0.33333333  0.88888889  0.66666667  2.0576e-03
  0.33333333  0.88888889  0.83333333  2.0576e-03
  0.44444444  0.00000000  0.00000000  2.0576e-03
  0.44444444  0.00000000  0.16666667  2.0576e-03
  0.44444444  0.00000000  0.33333333  2.0576e-03
  0.44444444  0.00000000  0.50000000  2.0576e-03
  0.44444444  0.00000000  0.66666667  2.0576e-03
  0.44444444  0.00000000  0.83333333  2.0576e-03
  0.44444444  0.11111111  0.00000000  2.0576e-03
  0.44444444  0.11111111  0.16666667  2.0576e-03
  0.44444444  0.11111111  0.33333333  2.0576e-03
  0.44444444  0.11111111  0.50000000  2.0576e-03
  0.44444444  0.11111111  0.66666667  2.0576e-03
  0.44444444  0.11111111  0.83333333  2.0576e-03
  0.44444444  0.22222222  0.00000000  2.0576e-03
  0.44444444  0.22222222  0.16666667  2.0576e-03
  0.44444444  0.22222222  0.33333333  2.0576e-03
  0.44444444  0.22222222  0.50000000  2.0576e-03
  0.44444444  0.22222222  0.66666667  2.0576e-03
  0.44444444  0.22222222  0.83333333  2.0576e-03
  0.44444444  0.33333333  0.00000000  2.0576e-03
  0.44444444  0.33333333  0.16666667  2.0576e-03
  0.44444444  0.33333333  0.33333333  2.0576e-03
  0.44444444  0.33333333  0.50000000  2.0576e-03
  0.44444444  0.33333333  0.66666667  2.0576e-03
  0.44444444  0.33333333  0.83333333  2.0576e-03
  0.44444444  0.44444444  0.00000000  2.0576e-03
  0.44444444  0.44444444  0.16666667  2.0576e-03
  0.44444444  0.44444444  0.33333333  2.0576e-03
  0.44444444  0.44444444  0.50000000  2.0576e-03
  0.44444444  0.44444444  0.66666667  2.0576e-03
  0.44444444  0.44444444  0.83333333  2.0576e-03
  0.44444444  0.55555556  0.00000000  2.0576e-03
  0.44444444  0.55555556  0.16666667  2.0576e-03
  0.44444444  0.55555556  0.33333333  2.0576e-03
  0.44444444  0.55555556  0.50000000  2.0576e-03
  0.44444444  0.55555556  0.66666667  2.0576e-03
  0.44444444  0.55555556  0.83333333  2.0576e-03
  0.44444444  0.66666667  0.00000000  2.0576e-03
  0.44444444  0.66666667  0.16666667  2.0576e-03
  0.44444444  0.66666667  0.33333333  2.0576e-03
  0.44444444  0.66666667  0.50000000  2.0576e-03
  0.44444444  0.66666667  0.66666667  2.0576e-03
  0.44444444  0.66666667  0.83333333  2.0576e-03
  0.44444444  0.77777778  0.00000000  2.0576e-03
  0.44444444  0.77777778  0.16666667  2.0576e-03
  0.44444444  0.77777778  0.33333333  2.0576e-03
  0.44444444  0.77777778  0.50000000  2.0576e-03
  0.44444444  0.77777778  0.66666667  2.0576e-03
  0.44444444  0.77777778  0.83333333  2.0576e-03
  0.44444444  0.88888889  0.00000000  2.0576e-03
  0.44444444  0.88888889  0.16666667  2.0576e-03
  0.44444444  0.88888889  0.33333333  2.0576e-03
  0.44444444  0.88888889  0.50000000  2.0576e-03
  0.44444444  0.88888889  0.66666667  2.0576e-03
  0.44444444  0.88888889  0.83333333  2.0576e-03
  0.55555556  0.00000000  0.00000000  2.0576e-03
  0.55555556  0.00000000  0.16666667  2.0576e-03
  0.55555556  0.00000000  0.33333333  2.0576e-03
  0.55555556  0.00000000  0.50000000  2.0576e-03
  0.55555556  0.00000000  0.66666667  2.0576e-03
  0.55555556  0.00000000  0.83333333  2.0576e-03
  0.55555556  0.11111111  0.00000000  2.0576e-03
  0.55555556  0.11111111  0.16666667  2.0576e-03
  0.55555556  0.11111111  0.33333333  2.0576e-03
  0.55555556  0.11111111  0.50000000  2.0576e-03
  0.55555556  0.11111111  0.66666667  2.0576e-03
  0.55555556  0.11111111  0.83333333  2.0576e-03
  0.55555556  0.22222222  0.00000000  2.0576e-03
  0.55555556  0.22222222  0.16666667  2.0576e-03
  0.55555556  0.22222222  0.33333333  2.0576e-03
  0.55555556  0.22222222  0.50000000  2.0576e-03
  0.55555556  0.22222222  0.66666667  2.0576e-03
  0.55555556  0.22222222  0.83333333  2.0576e-03
  0.55555556  0.33333333  0.00000000  2.0576e-03
  0.55555556  0.33333333  0.16666667  2.0576e-03
  0.55555556  0.33333333  0.33333333  2.0576e-03
  0.55555556  0.33333333  0.50000000  2.0576e-03
  0.55555556  0.33333333  0.66666667  2.0576e-03
  0.55555556  0.33333333  0.83333333  2.0576e-03
  0.55555556  0.44444444  0.00000000  2.0576e-03
  0.55555556  0.44444444  0.16666667  2.0576e-03
  0.55555556  0.44444444  0.33333333  2.0576e-03
  0.55555556  0.44444444  0.50000000  2.0576e-03
  0.55555556  0.44444444  0.66666667  2.0576e-03
  0.55555556  0.44444444  0.83333333  2.0576e-03
  0.55555556  0.55555556  0.00000000  2.0576e-03
  0.55555556  0.55555556  0.16666667  2.0576e-03
  0.55555556  0.55555556  0.33333333  2.0576e-03
  0.55555556  0.55555556  0.50000000  2.0576e-03
  0.55555556  0.55555556  0.66666667  2.0576e-03
  0.55555556  0.55555556  0.83333333  2.0576e-03
  0.55555556  0.66666667  0.00000000  2.0576e-03
  0.55555556  0.66666667  0.16666667  2.0576e-03
  0.55555556  0.66666667  0.33333333  2.0576e-03
  0.55555556  0.66666667  0.50000000  2.0576e-03
  0.55555556  0.66666667  0.66666667  2.0576e-03
  0.55555556  0.66666667  0.83333333  2.0576e-03
  0.55555556  0.77777778  0.00000000  2.0576e-03
  0.55555556  0.77777778  0.16666667  2.0576e-03
  0.55555556  0.77777778  0.33333333  2.0576e-03
  0.55555556  0.77777778  0.50000000  2.0576e-03
  0.55555556  0.77777778  0.66666667  2.0576e-03
  0.55555556  0.77777778  0.83333333  2.0576e-03
  0.55555556  0.88888889  0.00000000  2.0576e-03
  0.55555556  0.88888889  0.16666667  2.0576e-03
  0.55555556  0.88888889  0.33333333  2.0576e-03
  0.55555556  0.88888889  0.50000000  2.0576e-03
  0.55555556  0.88888889  0.66666667  2.0576e-03
  0.55555556  0.88888889  0.83333333  2.0576e-03
  0.66666667  0.00000000  0.00000000  2.0576e-03
  0.66666667  0.00000000  0.16666667  2.0576e-03
  0.66666667  0.00000000  0.33333333  2.0576e-03
  0.66666667  0.00000000  0.50000000  2.0576e-03
  0.66666667  0.00000000  0.66666667  2.0576e-03
  0.66666667  0.00000000  0.83333333  2.0576e-03
  0.66666667  0.11111111  0.00000000  2.0576e-03
  0.66666667  0.11111111  0.16666667  2.0576e-03
  0.66666667  0.11111111  0.33333333  2.0576e-03
  0.66666667  0.11111111  0.50000000  2.0576e-03
  0.66666667  0.11111111  0.66666667  2.0576e-03
  0.66666667  0.11111111  0.83333333  2.0576e-03
  0.66666667  0.22222222  0.00000000  2.0576e-03
  0.66666667  0.22222222  0.16666667  2.0576e-03
  0.66666667  0.22222222  0.33333333  2.0576e-03
  0.66666667  0.22222222  0.50000000  2.0576e-03
  0.66666667  0.22222222  0.66666667  2.0576e-03
  0.66666667  0.22222222  0.83333333  2.0576e-03
  0.66666667  0.33333333  0.00000000  2.0576e-03
  0.66666667  0.33333333  0.16666667  2.0576e-03
  0.66666667  0.33333333  0.33333333  2.0576e-03
  0.66666667  0.33333333  0.50000000  2.0576e-03
  0.66666667  0.33333333  0.66666667  2.0576e-03
  0.66666667  0.33333333  0.83333333  2.0576e-03
  0.66666667  0.44444444  0.00000000  2.0576e-03
  0.66666667  0.44444444  0.16666667  2.0576e-03
  0.66666667  0.44444444  0.33333333  2.0576e-03
  0.66666667  0.44444444  0.50000000  2.0576e-03
  0.66666667  0.44444444  0.66666667  2.0576e-03
  0.66666667  0.44444444  0.83333333  2.0576e-03
  0.66666667  0.55555556  0.00000000  2.0576e-03
  0.66666667  0.55555556  0.16666667  2.0576e-03
  0.66666667  0.55555556  0.33333333  2.0576e-03
  0.66666667  0.55555556  0.50000000  2.0576e-03
  0.66666667  0.55555556  0.66666667  2.0576e-03
  0.66666667  0.55555556  0.83333333  2.0576e-03
  0.66666667  0.66666667  0.00000000  2.0576e-03
  0.66666667  0.66666667  0.16666667  2.0576e-03
  0.66666667  0.66666667  0.33333333  2.0576e-03
  0.66666667  0.66666667  0.50000000  2.0576e-03
  0.66666667  0.66666667  0.66666667  2.0576e-03
  0.66666667  0.66666667  0.83333333  2.0576e-03
  0.66666667  0.77777778  0.00000000  2.0576e-03
  0.66666667  0.77777778  0.16666667  2.0576e-03
  0.66666667  0.77777778  0.33333333  2.0576e-03
  0.66666667  0.77777778  0.50000000  2.0576e-03
  0.66666667  0.77777778  0.66666667  2.0576e-03
  0.66666667  0.77777778  0.83333333  2.0576e-03
  0.66666667  0.88888889  0.00000000  2.0576e-03
  0.66666667  0.88888889  0.16666667  2.0576e-03
  0.66666667  0.88888889  0.33333333  2.0576e-03
  0.66666667  0.88888889  0.50000000  2.0576e-03
  0.66666667  0.88888889  0.66666667  2.0576e-03
  0.66666667  0.88888889  0.83333333  2.0576e-03
  0.77777778  0.00000000  0.00000000  2.0576e-03
  0.77777778  0.00000000  0.16666667  2.0576e-03
  0.77777778  0.00000000  0.33333333  2.0576e-03
  0.77777778  0.00000000  0.50000000  2.0576e-03
  0.77777778  0.00000000  0.66666667  2.0576e-03
  0.77777778  0.00000000  0.83333333  2.0576e-03
  0.77777778  0.11111111  0.00000000  2.0576e-03
  0.77777778  0.11111111  0.16666667  2.0576e-03
  0.77777778  0.11111111  0.33333333  2.0576e-03
  0.77777778  0.11111111  0.50000000  2.0576e-03
  0.77777778  0.11111111  0.66666667  2.0576e-03
  0.77777778  0.11111111  0.83333333  2.0576e-03
  0.77777778  0.22222222  0.00000000  2.0576e-03
  0.77777778  0.22222222  0.16666667  2.0576e-03
  0.77777778  0.22222222  0.33333333  2.0576e-03
  0.77777778  0.22222222  0.50000000  2.0576e-03
  0.77777778  0.22222222  0.66666667  2.0576e-03
  0.77777778  0.22222222  0.83333333  2.0576e-03
  0.77777778  0.33333333  0.00000000  2.0576e-03
  0.77777778  0.33333333  0.16666667  2.0576e-03
  0.77777778  0.33333333  0.33333333  2.0576e-03
  0.77777778  0.33333333  0.50000000  2.0576e-03
  0.77777778  0.33333333  0.66666667  2.0576e-03
  0.77777778  0.33333333  0.83333333  2.0576e-03
  0.77777778  0.44444444  0.00000000  2.0576e-03
  0.77777778  0.44444444  0.16666667  2.0576e-03
  0.77777778  0.44444444  0.33333333  2.0576e-03
  0.77777778  0.44444444  0.50000000  2.0576e-03
  0.77777778  0.44444444  0.66666667  2.0576e-03
  0.77777778  0.44444444  0.83333333  2.0576e-03
  0.77777778  0.55555556  0.00000000  2.0576e-03
  0.77777778  0.55555556  0.16666667  2.0576e-03
  0.77777778  0.55555556  0.33333333  2.0576e-03
  0.77777778  0.55555556  0.50000000  2.0576e-03
  0.77777778  0.55555556  0.66666667  2.0576e-03
  0.77777778  0.55555556  0.83333333  2.0576e-03
  0.77777778  0.66666667  0.00000000  2.0576e-03
  0.77777778  0.66666667  0.16666667  2.0576e-03
  0.77777778  0.66666667  0.33333333  2.0576e-03
  0.77777778  0.66666667  0.50000000  2.0576e-03
  0.77777778  0.66666667  0.66666667  2.0576e-03
  0.77777778  0.66666667  0.83333333  2.0576e-03
  0.77777778  0.77777778  0.00000000  2.0576e-03
  0.77777778  0.77777778  0.16666667  2.0576e-03
  0.77777778  0.77777778  0.33333333  2.0576e-03
  0.77777778  0.77777778  0.50000000  2.0576e-03
  0.77777778  0.77777778  0.66666667  2.0576e-03
  0.77777778  0.77777778  0.83333333  2.0576e-03
  0.77777778  0.88888889  0.00000000  2.0576e-03
  0.77777778  0.88888889  0.16666667  2.0576e-03
  0.77777778  0.88888889  0.33333333  2.0576e-03
  0.77777778  0.88888889  0.50000000  2.0576e-03
  0.77777778  0.88888889  0.66666667  2.0576e-03
  0.77777778  0.88888889  0.83333333  2.0576e-03
  0.88888889  0.00000000  0.00000000  2.0576e-03
  0.88888889  0.00000000  0.16666667  2.0576e-03
  0.88888889  0.00000000  0.33333333  2.0576e-03
  0.88888889  0.00000000  0.50000000  2.0576e-03
  0.88888889  0.00000000  0.66666667  2.0576e-03
  0.88888889  0.00000000  0.83333333  2.0576e-03
  0.88888889  0.11111111  0.00000000  2.0576e-03
  0.88888889  0.11111111  0.16666667  2.0576e-03
  0.88888889  0.11111111  0.33333333  2.0576e-03
  0.88888889  0.11111111  0.50000000  2.0576e-03
  0.88888889  0.11111111  0.66666667  2.0576e-03
  0.88888889  0.11111111  0.83333333  2.0576e-03
  0.88888889  0.22222222  0.00000000  2.0576e-03
  0.88888889  0.22222222  0.16666667  2.0576e-03
  0.88888889  0.22222222  0.33333333  2.0576e-03
  0.88888889  0.22222222  0.50000000  2.0576e-03
  0.88888889  0.22222222  0.66666667  2.0576e-03
  0.88888889  0.22222222  0.83333333  2.0576e-03
  0.88888889  0.33333333  0.00000000  2.0576e-03
  0.88888889  0.33333333  0.16666667  2.0576e-03
  0.88888889  0.33333333  0.33333333  2.0576e-03
  0.88888889  0.33333333  0.50000000  2.0576e-03
  0.88888889  0.33333333  0.66666667  2.0576e-03
  0.88888889  0.33333333  0.83333333  2.0576e-03
  0.88888889  0.44444444  0.00000000  2.0576e-03
  0.88888889  0.44444444  0.16666667  2.0576e-03
  0.88888889  0.44444444  0.33333333  2.0576e-03
  0.88888889  0.44444444  0.50000000  2.0576e-03
  0.88888889  0.44444444  0.66666667  2.0576e-03
  0.88888889  0.44444444  0.83333333  2.0576e-03
  0.88888889  0.55555556  0.00000000  2.0576e-03
  0.88888889  0.55555556  0.16666667  2.0576e-03
  0.88888889  0.55555556  0.33333333  2.0576e-03
  0.88888889  0.55555556  0.50000000  2.0576e-03
  0.88888889  0.55555556  0.66666667  2.0576e-03
  0.88888889  0.55555556  0.83333333  2.0576e-03
  0.88888889  0.66666667  0.00000000  2.0576e-03
  0.88888889  0.66666667  0.16666667  2.0576e-03
  0.88888889  0.66666667  0.33333333  2.0576e-03
  0.88888889  0.66666667  0.50000000  2.0576e-03
  0.88888889  0.66666667  0.66666667  2.0576e-03
  0.88888889  0.66666667  0.83333333  2.0576e-03
  0.88888889  0.77777778  0.00000000  2.0576e-03
  0.88888889  0.77777778  0.16666667  2.0576e-03
  0.88888889  0.77777778  0.33333333  2.0576e-03
  0.88888889  0.77777778  0.50000000  2.0576e-03
  0.88888889  0.77777778  0.66666667  2.0576e-03
  0.88888889  0.77777778  0.83333333  2.0576e-03
  0.88888889  0.88888889  0.00000000  2.0576e-03
  0.88888889  0.88888889  0.16666667  2.0576e-03
  0.88888889  0.88888889  0.33333333  2.0576e-03
  0.88888889  0.88888889  0.50000000  2.0576e-03
  0.88888889  0.88888889  0.66666667  2.0576e-03
  0.88888889  0.88888889  0.83333333  2.0576e-03
