&projwfc
  prefix = 'nbti'
  outdir = './'
  lsym = .TRUE.
  filpdos = 'nbti-pdos'

/
