&CONTROL
  calculation = 'nscf',
  prefix = 'nbti',
  pseudo_dir = '../../pseudo/',
  tprnfor = .TRUE.,
  tstress = .TRUE.,
  verbosity = 'low',
/
&SYSTEM
  degauss = 0.015,
  ecutrho = 360.0,
  ecutwfc = 90.0,
  ibrav = 0,
  nosym = .FALSE.,
  occupations = 'smearing',
  smearing = 'gauss',
  nat = 2,
  ntyp = 2,
  nbnd = 30,
/
&ELECTRONS
  conv_thr = 1d-10,
  electron_maxstep = 50,
  mixing_beta = 0.7,
/
&IONS
/
&CELL
/
ATOMIC_SPECIES
  Nb  92.9064 Nb.upf
  Ti  47.8670 Ti.upf
ATOMIC_POSITIONS crystal
  Ti 0.500000000000 0.500000000000 0.500000000000
  Nb 0.000000000000 0.000000000000 0.000000000000
K_POINTS automatic
  42 42 42 0 0 0
CELL_PARAMETERS angstrom
      2.7786105118      0.0000000000      0.0000000000
      0.0000000000      2.7786105118      0.0000000000
      0.0000000000      0.0000000000      2.7786105118
