&CONTROL
  calculation = 'nscf',
  prefix = 'hea',
  pseudo_dir = '../../pseudo/',
  tprnfor = .TRUE.,
  tstress = .TRUE.,
  verbosity = 'low',
/
&SYSTEM
  degauss = 0.015,
  ecutrho = 340,
  ecutwfc = 85.0,
  ibrav = 0,
  nbnd = 200,
  nosym = .FALSE.,
  occupations = 'tetrahedra',
  smearing = 'gauss',
  nat = 20,
  ntyp = 5,
/
&ELECTRONS
  conv_thr = 1d-10,
  diagonalization = 'davidson',
  electron_maxstep = 40,
  mixing_beta = 0.7,
  mixing_mode =	'local-TF',
/
&IONS
/
&CELL
/
ATOMIC_SPECIES
  Hf  178.4900 Hf.upf
  Nb  92.9064 Nb.upf
  Ta  180.9479 Ta.upf
  Ti  47.8670 Ti.upf
  Zr  91.2240 Zr.upf
ATOMIC_POSITIONS crystal
  Hf 0.602869198900 0.602869198800 0.896809019400
  Hf 0.395412300900 0.395412301000 0.844946417300
  Zr 0.599969524600 0.599969524300 0.151036009400
  Zr 0.804857879600 0.804857879700 0.457925767100
  Ta 0.800645158500 0.800645158400 0.195374362100
  Ta 0.397378403100 0.397378403200 0.105233418500
  Ta 0.597917177400 0.597917177300 0.402583944900
  Ta 0.205128762500 0.205128762400 0.303514378700
  Ta 0.001338251300 0.001338251300 0.250481645100
  Ta -0.005658491900 -0.005658491900 0.749269580700
  Ta 0.804746456700 0.804746456900 0.949853793100
  Ti 0.404727706800 0.404727707000 0.596852230300
  Ti 0.200627535300 0.200627535200 0.051609660700
  Nb 0.793494820600 0.793494820600 0.695432751200
  Nb 0.002681480100 0.002681480100 0.001694565100
  Nb 0.000995895200 0.000995895300 0.501058188000
  Nb 0.195332497200 0.195332497200 0.801114037100
  Nb 0.398634641100 0.398634641000 0.347689836300
  Nb 0.199717223900 0.199717223900 0.550112296200
  Nb 0.599183578300 0.599183578500 0.647408098800
K_POINTS automatic
  18 18 8 0 0 0
CELL_PARAMETERS angstrom
      6.9227947100      0.0146144720     -3.6932803310
      5.4483789160      4.2708860150     -3.6932803310
     -0.0256699470     -0.0088923320     11.0318291990
