&CONTROL
  calculation = 'scf',
  prefix = 'nbti',
  pseudo_dir = '../../pseudo/',
  tprnfor = .TRUE.,
  tstress = .TRUE.,
  verbosity = 'low',
/
&SYSTEM
  degauss = 0.015,
  ecutrho = 340.0,
  ecutwfc = 85.0,
  ibrav = 0,
  nbnd = 200,
  nosym = .FALSE.,
  occupations = 'smearing',
  smearing = 'gauss',
  nat = 16,
  ntyp = 2,
/
&ELECTRONS
  conv_thr = 1d-10,
  electron_maxstep = 80,
  mixing_beta = 0.7,
  mixing_mode = 'local-TF',
/
&IONS
/
&CELL
/
ATOMIC_SPECIES
  Nb  92.9064 Nb.upf
  Ti  47.8670 Ti.upf
ATOMIC_POSITIONS crystal
  Ti 0.256700129400 0.743299846000 0.751661989400
  Ti 0.493299870600 0.506700154000 0.498338010600
  Ti 0.261344647500 0.738655298100 0.246167295900
  Ti 0.488655352500 0.511344701900 0.003832704100
  Ti 0.234692040100 0.238016524400 0.247744883200
  Ti -0.011983452200 0.484691901100 0.002255080700
  Ti 0.515307959900 0.011983475600 0.002255116800
  Ti 0.761983452200 0.765308098900 0.247744919300
  Nb 0.745539571600 0.254460386700 0.749720080500
  Nb 0.738258653600 0.261741508000 0.248107892400
  Nb 0.004460428400 -0.004460386700 0.500279919500
  Nb 0.011741346400 -0.011741508000 0.001892107600
  Nb -0.002467433700 0.499447707000 0.494921786100
  Nb 0.500552327000 0.002467476100 0.494921756500
  Nb 0.249447673000 0.247532523900 0.755078243500
  Nb 0.752467433700 0.750552293000 0.755078213900
CELL_PARAMETERS angstrom
      5.3906733490      0.0274567810     -0.0152869710
     -1.7645369530      5.0937727880      0.0152875460
     -0.0241269250      0.0170828000      8.7035250940
K_POINTS crystal
486
  0.00000000  0.00000000  0.00000000  2.0576e-03
  0.00000000  0.00000000  0.16666667  2.0576e-03
  0.00000000  0.00000000  0.33333333  2.0576e-03
  0.00000000  0.00000000  0.50000000  2.0576e-03
  0.00000000  0.00000000  0.66666667  2.0576e-03
  0.00000000  0.00000000  0.83333333  2.0576e-03
  0.00000000  0.11111111  0.00000000  2.0576e-03
  0.00000000  0.11111111  0.16666667  2.0576e-03
  0.00000000  0.11111111  0.33333333  2.0576e-03
  0.00000000  0.11111111  0.50000000  2.0576e-03
  0.00000000  0.11111111  0.66666667  2.0576e-03
  0.00000000  0.11111111  0.83333333  2.0576e-03
  0.00000000  0.22222222  0.00000000  2.0576e-03
  0.00000000  0.22222222  0.16666667  2.0576e-03
  0.00000000  0.22222222  0.33333333  2.0576e-03
  0.00000000  0.22222222  0.50000000  2.0576e-03
  0.00000000  0.22222222  0.66666667  2.0576e-03
  0.00000000  0.22222222  0.83333333  2.0576e-03
  0.00000000  0.33333333  0.00000000  2.0576e-03
  0.00000000  0.33333333  0.16666667  2.0576e-03
  0.00000000  0.33333333  0.33333333  2.0576e-03
  0.00000000  0.33333333  0.50000000  2.0576e-03
  0.00000000  0.33333333  0.66666667  2.0576e-03
  0.00000000  0.33333333  0.83333333  2.0576e-03
  0.00000000  0.44444444  0.00000000  2.0576e-03
  0.00000000  0.44444444  0.16666667  2.0576e-03
  0.00000000  0.44444444  0.33333333  2.0576e-03
  0.00000000  0.44444444  0.50000000  2.0576e-03
  0.00000000  0.44444444  0.66666667  2.0576e-03
  0.00000000  0.44444444  0.83333333  2.0576e-03
  0.00000000  0.55555556  0.00000000  2.0576e-03
  0.00000000  0.55555556  0.16666667  2.0576e-03
  0.00000000  0.55555556  0.33333333  2.0576e-03
  0.00000000  0.55555556  0.50000000  2.0576e-03
  0.00000000  0.55555556  0.66666667  2.0576e-03
  0.00000000  0.55555556  0.83333333  2.0576e-03
  0.00000000  0.66666667  0.00000000  2.0576e-03
  0.00000000  0.66666667  0.16666667  2.0576e-03
  0.00000000  0.66666667  0.33333333  2.0576e-03
  0.00000000  0.66666667  0.50000000  2.0576e-03
  0.00000000  0.66666667  0.66666667  2.0576e-03
  0.00000000  0.66666667  0.83333333  2.0576e-03
  0.00000000  0.77777778  0.00000000  2.0576e-03
  0.00000000  0.77777778  0.16666667  2.0576e-03
  0.00000000  0.77777778  0.33333333  2.0576e-03
  0.00000000  0.77777778  0.50000000  2.0576e-03
  0.00000000  0.77777778  0.66666667  2.0576e-03
  0.00000000  0.77777778  0.83333333  2.0576e-03
  0.00000000  0.88888889  0.00000000  2.0576e-03
  0.00000000  0.88888889  0.16666667  2.0576e-03
  0.00000000  0.88888889  0.33333333  2.0576e-03
  0.00000000  0.88888889  0.50000000  2.0576e-03
  0.00000000  0.88888889  0.66666667  2.0576e-03
  0.00000000  0.88888889  0.83333333  2.0576e-03
  0.11111111  0.00000000  0.00000000  2.0576e-03
  0.11111111  0.00000000  0.16666667  2.0576e-03
  0.11111111  0.00000000  0.33333333  2.0576e-03
  0.11111111  0.00000000  0.50000000  2.0576e-03
  0.11111111  0.00000000  0.66666667  2.0576e-03
  0.11111111  0.00000000  0.83333333  2.0576e-03
  0.11111111  0.11111111  0.00000000  2.0576e-03
  0.11111111  0.11111111  0.16666667  2.0576e-03
  0.11111111  0.11111111  0.33333333  2.0576e-03
  0.11111111  0.11111111  0.50000000  2.0576e-03
  0.11111111  0.11111111  0.66666667  2.0576e-03
  0.11111111  0.11111111  0.83333333  2.0576e-03
  0.11111111  0.22222222  0.00000000  2.0576e-03
  0.11111111  0.22222222  0.16666667  2.0576e-03
  0.11111111  0.22222222  0.33333333  2.0576e-03
  0.11111111  0.22222222  0.50000000  2.0576e-03
  0.11111111  0.22222222  0.66666667  2.0576e-03
  0.11111111  0.22222222  0.83333333  2.0576e-03
  0.11111111  0.33333333  0.00000000  2.0576e-03
  0.11111111  0.33333333  0.16666667  2.0576e-03
  0.11111111  0.33333333  0.33333333  2.0576e-03
  0.11111111  0.33333333  0.50000000  2.0576e-03
  0.11111111  0.33333333  0.66666667  2.0576e-03
  0.11111111  0.33333333  0.83333333  2.0576e-03
  0.11111111  0.44444444  0.00000000  2.0576e-03
  0.11111111  0.44444444  0.16666667  2.0576e-03
  0.11111111  0.44444444  0.33333333  2.0576e-03
  0.11111111  0.44444444  0.50000000  2.0576e-03
  0.11111111  0.44444444  0.66666667  2.0576e-03
  0.11111111  0.44444444  0.83333333  2.0576e-03
  0.11111111  0.55555556  0.00000000  2.0576e-03
  0.11111111  0.55555556  0.16666667  2.0576e-03
  0.11111111  0.55555556  0.33333333  2.0576e-03
  0.11111111  0.55555556  0.50000000  2.0576e-03
  0.11111111  0.55555556  0.66666667  2.0576e-03
  0.11111111  0.55555556  0.83333333  2.0576e-03
  0.11111111  0.66666667  0.00000000  2.0576e-03
  0.11111111  0.66666667  0.16666667  2.0576e-03
  0.11111111  0.66666667  0.33333333  2.0576e-03
  0.11111111  0.66666667  0.50000000  2.0576e-03
  0.11111111  0.66666667  0.66666667  2.0576e-03
  0.11111111  0.66666667  0.83333333  2.0576e-03
  0.11111111  0.77777778  0.00000000  2.0576e-03
  0.11111111  0.77777778  0.16666667  2.0576e-03
  0.11111111  0.77777778  0.33333333  2.0576e-03
  0.11111111  0.77777778  0.50000000  2.0576e-03
  0.11111111  0.77777778  0.66666667  2.0576e-03
  0.11111111  0.77777778  0.83333333  2.0576e-03
  0.11111111  0.88888889  0.00000000  2.0576e-03
  0.11111111  0.88888889  0.16666667  2.0576e-03
  0.11111111  0.88888889  0.33333333  2.0576e-03
  0.11111111  0.88888889  0.50000000  2.0576e-03
  0.11111111  0.88888889  0.66666667  2.0576e-03
  0.11111111  0.88888889  0.83333333  2.0576e-03
  0.22222222  0.00000000  0.00000000  2.0576e-03
  0.22222222  0.00000000  0.16666667  2.0576e-03
  0.22222222  0.00000000  0.33333333  2.0576e-03
  0.22222222  0.00000000  0.50000000  2.0576e-03
  0.22222222  0.00000000  0.66666667  2.0576e-03
  0.22222222  0.00000000  0.83333333  2.0576e-03
  0.22222222  0.11111111  0.00000000  2.0576e-03
  0.22222222  0.11111111  0.16666667  2.0576e-03
  0.22222222  0.11111111  0.33333333  2.0576e-03
  0.22222222  0.11111111  0.50000000  2.0576e-03
  0.22222222  0.11111111  0.66666667  2.0576e-03
  0.22222222  0.11111111  0.83333333  2.0576e-03
  0.22222222  0.22222222  0.00000000  2.0576e-03
  0.22222222  0.22222222  0.16666667  2.0576e-03
  0.22222222  0.22222222  0.33333333  2.0576e-03
  0.22222222  0.22222222  0.50000000  2.0576e-03
  0.22222222  0.22222222  0.66666667  2.0576e-03
  0.22222222  0.22222222  0.83333333  2.0576e-03
  0.22222222  0.33333333  0.00000000  2.0576e-03
  0.22222222  0.33333333  0.16666667  2.0576e-03
  0.22222222  0.33333333  0.33333333  2.0576e-03
  0.22222222  0.33333333  0.50000000  2.0576e-03
  0.22222222  0.33333333  0.66666667  2.0576e-03
  0.22222222  0.33333333  0.83333333  2.0576e-03
  0.22222222  0.44444444  0.00000000  2.0576e-03
  0.22222222  0.44444444  0.16666667  2.0576e-03
  0.22222222  0.44444444  0.33333333  2.0576e-03
  0.22222222  0.44444444  0.50000000  2.0576e-03
  0.22222222  0.44444444  0.66666667  2.0576e-03
  0.22222222  0.44444444  0.83333333  2.0576e-03
  0.22222222  0.55555556  0.00000000  2.0576e-03
  0.22222222  0.55555556  0.16666667  2.0576e-03
  0.22222222  0.55555556  0.33333333  2.0576e-03
  0.22222222  0.55555556  0.50000000  2.0576e-03
  0.22222222  0.55555556  0.66666667  2.0576e-03
  0.22222222  0.55555556  0.83333333  2.0576e-03
  0.22222222  0.66666667  0.00000000  2.0576e-03
  0.22222222  0.66666667  0.16666667  2.0576e-03
  0.22222222  0.66666667  0.33333333  2.0576e-03
  0.22222222  0.66666667  0.50000000  2.0576e-03
  0.22222222  0.66666667  0.66666667  2.0576e-03
  0.22222222  0.66666667  0.83333333  2.0576e-03
  0.22222222  0.77777778  0.00000000  2.0576e-03
  0.22222222  0.77777778  0.16666667  2.0576e-03
  0.22222222  0.77777778  0.33333333  2.0576e-03
  0.22222222  0.77777778  0.50000000  2.0576e-03
  0.22222222  0.77777778  0.66666667  2.0576e-03
  0.22222222  0.77777778  0.83333333  2.0576e-03
  0.22222222  0.88888889  0.00000000  2.0576e-03
  0.22222222  0.88888889  0.16666667  2.0576e-03
  0.22222222  0.88888889  0.33333333  2.0576e-03
  0.22222222  0.88888889  0.50000000  2.0576e-03
  0.22222222  0.88888889  0.66666667  2.0576e-03
  0.22222222  0.88888889  0.83333333  2.0576e-03
  0.33333333  0.00000000  0.00000000  2.0576e-03
  0.33333333  0.00000000  0.16666667  2.0576e-03
  0.33333333  0.00000000  0.33333333  2.0576e-03
  0.33333333  0.00000000  0.50000000  2.0576e-03
  0.33333333  0.00000000  0.66666667  2.0576e-03
  0.33333333  0.00000000  0.83333333  2.0576e-03
  0.33333333  0.11111111  0.00000000  2.0576e-03
  0.33333333  0.11111111  0.16666667  2.0576e-03
  0.33333333  0.11111111  0.33333333  2.0576e-03
  0.33333333  0.11111111  0.50000000  2.0576e-03
  0.33333333  0.11111111  0.66666667  2.0576e-03
  0.33333333  0.11111111  0.83333333  2.0576e-03
  0.33333333  0.22222222  0.00000000  2.0576e-03
  0.33333333  0.22222222  0.16666667  2.0576e-03
  0.33333333  0.22222222  0.33333333  2.0576e-03
  0.33333333  0.22222222  0.50000000  2.0576e-03
  0.33333333  0.22222222  0.66666667  2.0576e-03
  0.33333333  0.22222222  0.83333333  2.0576e-03
  0.33333333  0.33333333  0.00000000  2.0576e-03
  0.33333333  0.33333333  0.16666667  2.0576e-03
  0.33333333  0.33333333  0.33333333  2.0576e-03
  0.33333333  0.33333333  0.50000000  2.0576e-03
  0.33333333  0.33333333  0.66666667  2.0576e-03
  0.33333333  0.33333333  0.83333333  2.0576e-03
  0.33333333  0.44444444  0.00000000  2.0576e-03
  0.33333333  0.44444444  0.16666667  2.0576e-03
  0.33333333  0.44444444  0.33333333  2.0576e-03
  0.33333333  0.44444444  0.50000000  2.0576e-03
  0.33333333  0.44444444  0.66666667  2.0576e-03
  0.33333333  0.44444444  0.83333333  2.0576e-03
  0.33333333  0.55555556  0.00000000  2.0576e-03
  0.33333333  0.55555556  0.16666667  2.0576e-03
  0.33333333  0.55555556  0.33333333  2.0576e-03
  0.33333333  0.55555556  0.50000000  2.0576e-03
  0.33333333  0.55555556  0.66666667  2.0576e-03
  0.33333333  0.55555556  0.83333333  2.0576e-03
  0.33333333  0.66666667  0.00000000  2.0576e-03
  0.33333333  0.66666667  0.16666667  2.0576e-03
  0.33333333  0.66666667  0.33333333  2.0576e-03
  0.33333333  0.66666667  0.50000000  2.0576e-03
  0.33333333  0.66666667  0.66666667  2.0576e-03
  0.33333333  0.66666667  0.83333333  2.0576e-03
  0.33333333  0.77777778  0.00000000  2.0576e-03
  0.33333333  0.77777778  0.16666667  2.0576e-03
  0.33333333  0.77777778  0.33333333  2.0576e-03
  0.33333333  0.77777778  0.50000000  2.0576e-03
  0.33333333  0.77777778  0.66666667  2.0576e-03
  0.33333333  0.77777778  0.83333333  2.0576e-03
  0.33333333  0.88888889  0.00000000  2.0576e-03
  0.33333333  0.88888889  0.16666667  2.0576e-03
  0.33333333  0.88888889  0.33333333  2.0576e-03
  0.33333333  0.88888889  0.50000000  2.0576e-03
  0.33333333  0.88888889  0.66666667  2.0576e-03
  0.33333333  0.88888889  0.83333333  2.0576e-03
  0.44444444  0.00000000  0.00000000  2.0576e-03
  0.44444444  0.00000000  0.16666667  2.0576e-03
  0.44444444  0.00000000  0.33333333  2.0576e-03
  0.44444444  0.00000000  0.50000000  2.0576e-03
  0.44444444  0.00000000  0.66666667  2.0576e-03
  0.44444444  0.00000000  0.83333333  2.0576e-03
  0.44444444  0.11111111  0.00000000  2.0576e-03
  0.44444444  0.11111111  0.16666667  2.0576e-03
  0.44444444  0.11111111  0.33333333  2.0576e-03
  0.44444444  0.11111111  0.50000000  2.0576e-03
  0.44444444  0.11111111  0.66666667  2.0576e-03
  0.44444444  0.11111111  0.83333333  2.0576e-03
  0.44444444  0.22222222  0.00000000  2.0576e-03
  0.44444444  0.22222222  0.16666667  2.0576e-03
  0.44444444  0.22222222  0.33333333  2.0576e-03
  0.44444444  0.22222222  0.50000000  2.0576e-03
  0.44444444  0.22222222  0.66666667  2.0576e-03
  0.44444444  0.22222222  0.83333333  2.0576e-03
  0.44444444  0.33333333  0.00000000  2.0576e-03
  0.44444444  0.33333333  0.16666667  2.0576e-03
  0.44444444  0.33333333  0.33333333  2.0576e-03
  0.44444444  0.33333333  0.50000000  2.0576e-03
  0.44444444  0.33333333  0.66666667  2.0576e-03
  0.44444444  0.33333333  0.83333333  2.0576e-03
  0.44444444  0.44444444  0.00000000  2.0576e-03
  0.44444444  0.44444444  0.16666667  2.0576e-03
  0.44444444  0.44444444  0.33333333  2.0576e-03
  0.44444444  0.44444444  0.50000000  2.0576e-03
  0.44444444  0.44444444  0.66666667  2.0576e-03
  0.44444444  0.44444444  0.83333333  2.0576e-03
  0.44444444  0.55555556  0.00000000  2.0576e-03
  0.44444444  0.55555556  0.16666667  2.0576e-03
  0.44444444  0.55555556  0.33333333  2.0576e-03
  0.44444444  0.55555556  0.50000000  2.0576e-03
  0.44444444  0.55555556  0.66666667  2.0576e-03
  0.44444444  0.55555556  0.83333333  2.0576e-03
  0.44444444  0.66666667  0.00000000  2.0576e-03
  0.44444444  0.66666667  0.16666667  2.0576e-03
  0.44444444  0.66666667  0.33333333  2.0576e-03
  0.44444444  0.66666667  0.50000000  2.0576e-03
  0.44444444  0.66666667  0.66666667  2.0576e-03
  0.44444444  0.66666667  0.83333333  2.0576e-03
  0.44444444  0.77777778  0.00000000  2.0576e-03
  0.44444444  0.77777778  0.16666667  2.0576e-03
  0.44444444  0.77777778  0.33333333  2.0576e-03
  0.44444444  0.77777778  0.50000000  2.0576e-03
  0.44444444  0.77777778  0.66666667  2.0576e-03
  0.44444444  0.77777778  0.83333333  2.0576e-03
  0.44444444  0.88888889  0.00000000  2.0576e-03
  0.44444444  0.88888889  0.16666667  2.0576e-03
  0.44444444  0.88888889  0.33333333  2.0576e-03
  0.44444444  0.88888889  0.50000000  2.0576e-03
  0.44444444  0.88888889  0.66666667  2.0576e-03
  0.44444444  0.88888889  0.83333333  2.0576e-03
  0.55555556  0.00000000  0.00000000  2.0576e-03
  0.55555556  0.00000000  0.16666667  2.0576e-03
  0.55555556  0.00000000  0.33333333  2.0576e-03
  0.55555556  0.00000000  0.50000000  2.0576e-03
  0.55555556  0.00000000  0.66666667  2.0576e-03
  0.55555556  0.00000000  0.83333333  2.0576e-03
  0.55555556  0.11111111  0.00000000  2.0576e-03
  0.55555556  0.11111111  0.16666667  2.0576e-03
  0.55555556  0.11111111  0.33333333  2.0576e-03
  0.55555556  0.11111111  0.50000000  2.0576e-03
  0.55555556  0.11111111  0.66666667  2.0576e-03
  0.55555556  0.11111111  0.83333333  2.0576e-03
  0.55555556  0.22222222  0.00000000  2.0576e-03
  0.55555556  0.22222222  0.16666667  2.0576e-03
  0.55555556  0.22222222  0.33333333  2.0576e-03
  0.55555556  0.22222222  0.50000000  2.0576e-03
  0.55555556  0.22222222  0.66666667  2.0576e-03
  0.55555556  0.22222222  0.83333333  2.0576e-03
  0.55555556  0.33333333  0.00000000  2.0576e-03
  0.55555556  0.33333333  0.16666667  2.0576e-03
  0.55555556  0.33333333  0.33333333  2.0576e-03
  0.55555556  0.33333333  0.50000000  2.0576e-03
  0.55555556  0.33333333  0.66666667  2.0576e-03
  0.55555556  0.33333333  0.83333333  2.0576e-03
  0.55555556  0.44444444  0.00000000  2.0576e-03
  0.55555556  0.44444444  0.16666667  2.0576e-03
  0.55555556  0.44444444  0.33333333  2.0576e-03
  0.55555556  0.44444444  0.50000000  2.0576e-03
  0.55555556  0.44444444  0.66666667  2.0576e-03
  0.55555556  0.44444444  0.83333333  2.0576e-03
  0.55555556  0.55555556  0.00000000  2.0576e-03
  0.55555556  0.55555556  0.16666667  2.0576e-03
  0.55555556  0.55555556  0.33333333  2.0576e-03
  0.55555556  0.55555556  0.50000000  2.0576e-03
  0.55555556  0.55555556  0.66666667  2.0576e-03
  0.55555556  0.55555556  0.83333333  2.0576e-03
  0.55555556  0.66666667  0.00000000  2.0576e-03
  0.55555556  0.66666667  0.16666667  2.0576e-03
  0.55555556  0.66666667  0.33333333  2.0576e-03
  0.55555556  0.66666667  0.50000000  2.0576e-03
  0.55555556  0.66666667  0.66666667  2.0576e-03
  0.55555556  0.66666667  0.83333333  2.0576e-03
  0.55555556  0.77777778  0.00000000  2.0576e-03
  0.55555556  0.77777778  0.16666667  2.0576e-03
  0.55555556  0.77777778  0.33333333  2.0576e-03
  0.55555556  0.77777778  0.50000000  2.0576e-03
  0.55555556  0.77777778  0.66666667  2.0576e-03
  0.55555556  0.77777778  0.83333333  2.0576e-03
  0.55555556  0.88888889  0.00000000  2.0576e-03
  0.55555556  0.88888889  0.16666667  2.0576e-03
  0.55555556  0.88888889  0.33333333  2.0576e-03
  0.55555556  0.88888889  0.50000000  2.0576e-03
  0.55555556  0.88888889  0.66666667  2.0576e-03
  0.55555556  0.88888889  0.83333333  2.0576e-03
  0.66666667  0.00000000  0.00000000  2.0576e-03
  0.66666667  0.00000000  0.16666667  2.0576e-03
  0.66666667  0.00000000  0.33333333  2.0576e-03
  0.66666667  0.00000000  0.50000000  2.0576e-03
  0.66666667  0.00000000  0.66666667  2.0576e-03
  0.66666667  0.00000000  0.83333333  2.0576e-03
  0.66666667  0.11111111  0.00000000  2.0576e-03
  0.66666667  0.11111111  0.16666667  2.0576e-03
  0.66666667  0.11111111  0.33333333  2.0576e-03
  0.66666667  0.11111111  0.50000000  2.0576e-03
  0.66666667  0.11111111  0.66666667  2.0576e-03
  0.66666667  0.11111111  0.83333333  2.0576e-03
  0.66666667  0.22222222  0.00000000  2.0576e-03
  0.66666667  0.22222222  0.16666667  2.0576e-03
  0.66666667  0.22222222  0.33333333  2.0576e-03
  0.66666667  0.22222222  0.50000000  2.0576e-03
  0.66666667  0.22222222  0.66666667  2.0576e-03
  0.66666667  0.22222222  0.83333333  2.0576e-03
  0.66666667  0.33333333  0.00000000  2.0576e-03
  0.66666667  0.33333333  0.16666667  2.0576e-03
  0.66666667  0.33333333  0.33333333  2.0576e-03
  0.66666667  0.33333333  0.50000000  2.0576e-03
  0.66666667  0.33333333  0.66666667  2.0576e-03
  0.66666667  0.33333333  0.83333333  2.0576e-03
  0.66666667  0.44444444  0.00000000  2.0576e-03
  0.66666667  0.44444444  0.16666667  2.0576e-03
  0.66666667  0.44444444  0.33333333  2.0576e-03
  0.66666667  0.44444444  0.50000000  2.0576e-03
  0.66666667  0.44444444  0.66666667  2.0576e-03
  0.66666667  0.44444444  0.83333333  2.0576e-03
  0.66666667  0.55555556  0.00000000  2.0576e-03
  0.66666667  0.55555556  0.16666667  2.0576e-03
  0.66666667  0.55555556  0.33333333  2.0576e-03
  0.66666667  0.55555556  0.50000000  2.0576e-03
  0.66666667  0.55555556  0.66666667  2.0576e-03
  0.66666667  0.55555556  0.83333333  2.0576e-03
  0.66666667  0.66666667  0.00000000  2.0576e-03
  0.66666667  0.66666667  0.16666667  2.0576e-03
  0.66666667  0.66666667  0.33333333  2.0576e-03
  0.66666667  0.66666667  0.50000000  2.0576e-03
  0.66666667  0.66666667  0.66666667  2.0576e-03
  0.66666667  0.66666667  0.83333333  2.0576e-03
  0.66666667  0.77777778  0.00000000  2.0576e-03
  0.66666667  0.77777778  0.16666667  2.0576e-03
  0.66666667  0.77777778  0.33333333  2.0576e-03
  0.66666667  0.77777778  0.50000000  2.0576e-03
  0.66666667  0.77777778  0.66666667  2.0576e-03
  0.66666667  0.77777778  0.83333333  2.0576e-03
  0.66666667  0.88888889  0.00000000  2.0576e-03
  0.66666667  0.88888889  0.16666667  2.0576e-03
  0.66666667  0.88888889  0.33333333  2.0576e-03
  0.66666667  0.88888889  0.50000000  2.0576e-03
  0.66666667  0.88888889  0.66666667  2.0576e-03
  0.66666667  0.88888889  0.83333333  2.0576e-03
  0.77777778  0.00000000  0.00000000  2.0576e-03
  0.77777778  0.00000000  0.16666667  2.0576e-03
  0.77777778  0.00000000  0.33333333  2.0576e-03
  0.77777778  0.00000000  0.50000000  2.0576e-03
  0.77777778  0.00000000  0.66666667  2.0576e-03
  0.77777778  0.00000000  0.83333333  2.0576e-03
  0.77777778  0.11111111  0.00000000  2.0576e-03
  0.77777778  0.11111111  0.16666667  2.0576e-03
  0.77777778  0.11111111  0.33333333  2.0576e-03
  0.77777778  0.11111111  0.50000000  2.0576e-03
  0.77777778  0.11111111  0.66666667  2.0576e-03
  0.77777778  0.11111111  0.83333333  2.0576e-03
  0.77777778  0.22222222  0.00000000  2.0576e-03
  0.77777778  0.22222222  0.16666667  2.0576e-03
  0.77777778  0.22222222  0.33333333  2.0576e-03
  0.77777778  0.22222222  0.50000000  2.0576e-03
  0.77777778  0.22222222  0.66666667  2.0576e-03
  0.77777778  0.22222222  0.83333333  2.0576e-03
  0.77777778  0.33333333  0.00000000  2.0576e-03
  0.77777778  0.33333333  0.16666667  2.0576e-03
  0.77777778  0.33333333  0.33333333  2.0576e-03
  0.77777778  0.33333333  0.50000000  2.0576e-03
  0.77777778  0.33333333  0.66666667  2.0576e-03
  0.77777778  0.33333333  0.83333333  2.0576e-03
  0.77777778  0.44444444  0.00000000  2.0576e-03
  0.77777778  0.44444444  0.16666667  2.0576e-03
  0.77777778  0.44444444  0.33333333  2.0576e-03
  0.77777778  0.44444444  0.50000000  2.0576e-03
  0.77777778  0.44444444  0.66666667  2.0576e-03
  0.77777778  0.44444444  0.83333333  2.0576e-03
  0.77777778  0.55555556  0.00000000  2.0576e-03
  0.77777778  0.55555556  0.16666667  2.0576e-03
  0.77777778  0.55555556  0.33333333  2.0576e-03
  0.77777778  0.55555556  0.50000000  2.0576e-03
  0.77777778  0.55555556  0.66666667  2.0576e-03
  0.77777778  0.55555556  0.83333333  2.0576e-03
  0.77777778  0.66666667  0.00000000  2.0576e-03
  0.77777778  0.66666667  0.16666667  2.0576e-03
  0.77777778  0.66666667  0.33333333  2.0576e-03
  0.77777778  0.66666667  0.50000000  2.0576e-03
  0.77777778  0.66666667  0.66666667  2.0576e-03
  0.77777778  0.66666667  0.83333333  2.0576e-03
  0.77777778  0.77777778  0.00000000  2.0576e-03
  0.77777778  0.77777778  0.16666667  2.0576e-03
  0.77777778  0.77777778  0.33333333  2.0576e-03
  0.77777778  0.77777778  0.50000000  2.0576e-03
  0.77777778  0.77777778  0.66666667  2.0576e-03
  0.77777778  0.77777778  0.83333333  2.0576e-03
  0.77777778  0.88888889  0.00000000  2.0576e-03
  0.77777778  0.88888889  0.16666667  2.0576e-03
  0.77777778  0.88888889  0.33333333  2.0576e-03
  0.77777778  0.88888889  0.50000000  2.0576e-03
  0.77777778  0.88888889  0.66666667  2.0576e-03
  0.77777778  0.88888889  0.83333333  2.0576e-03
  0.88888889  0.00000000  0.00000000  2.0576e-03
  0.88888889  0.00000000  0.16666667  2.0576e-03
  0.88888889  0.00000000  0.33333333  2.0576e-03
  0.88888889  0.00000000  0.50000000  2.0576e-03
  0.88888889  0.00000000  0.66666667  2.0576e-03
  0.88888889  0.00000000  0.83333333  2.0576e-03
  0.88888889  0.11111111  0.00000000  2.0576e-03
  0.88888889  0.11111111  0.16666667  2.0576e-03
  0.88888889  0.11111111  0.33333333  2.0576e-03
  0.88888889  0.11111111  0.50000000  2.0576e-03
  0.88888889  0.11111111  0.66666667  2.0576e-03
  0.88888889  0.11111111  0.83333333  2.0576e-03
  0.88888889  0.22222222  0.00000000  2.0576e-03
  0.88888889  0.22222222  0.16666667  2.0576e-03
  0.88888889  0.22222222  0.33333333  2.0576e-03
  0.88888889  0.22222222  0.50000000  2.0576e-03
  0.88888889  0.22222222  0.66666667  2.0576e-03
  0.88888889  0.22222222  0.83333333  2.0576e-03
  0.88888889  0.33333333  0.00000000  2.0576e-03
  0.88888889  0.33333333  0.16666667  2.0576e-03
  0.88888889  0.33333333  0.33333333  2.0576e-03
  0.88888889  0.33333333  0.50000000  2.0576e-03
  0.88888889  0.33333333  0.66666667  2.0576e-03
  0.88888889  0.33333333  0.83333333  2.0576e-03
  0.88888889  0.44444444  0.00000000  2.0576e-03
  0.88888889  0.44444444  0.16666667  2.0576e-03
  0.88888889  0.44444444  0.33333333  2.0576e-03
  0.88888889  0.44444444  0.50000000  2.0576e-03
  0.88888889  0.44444444  0.66666667  2.0576e-03
  0.88888889  0.44444444  0.83333333  2.0576e-03
  0.88888889  0.55555556  0.00000000  2.0576e-03
  0.88888889  0.55555556  0.16666667  2.0576e-03
  0.88888889  0.55555556  0.33333333  2.0576e-03
  0.88888889  0.55555556  0.50000000  2.0576e-03
  0.88888889  0.55555556  0.66666667  2.0576e-03
  0.88888889  0.55555556  0.83333333  2.0576e-03
  0.88888889  0.66666667  0.00000000  2.0576e-03
  0.88888889  0.66666667  0.16666667  2.0576e-03
  0.88888889  0.66666667  0.33333333  2.0576e-03
  0.88888889  0.66666667  0.50000000  2.0576e-03
  0.88888889  0.66666667  0.66666667  2.0576e-03
  0.88888889  0.66666667  0.83333333  2.0576e-03
  0.88888889  0.77777778  0.00000000  2.0576e-03
  0.88888889  0.77777778  0.16666667  2.0576e-03
  0.88888889  0.77777778  0.33333333  2.0576e-03
  0.88888889  0.77777778  0.50000000  2.0576e-03
  0.88888889  0.77777778  0.66666667  2.0576e-03
  0.88888889  0.77777778  0.83333333  2.0576e-03
  0.88888889  0.88888889  0.00000000  2.0576e-03
  0.88888889  0.88888889  0.16666667  2.0576e-03
  0.88888889  0.88888889  0.33333333  2.0576e-03
  0.88888889  0.88888889  0.50000000  2.0576e-03
  0.88888889  0.88888889  0.66666667  2.0576e-03
  0.88888889  0.88888889  0.83333333  2.0576e-03
